
     Program PWSCF v.7.4.1 starts on 27Nov2025 at  4:33:10 

     This program is part of the open-source Quantum ESPRESSO suite
     for quantum simulation of materials; please cite
         "P. Giannozzi et al., J. Phys.:Condens. Matter 21 395502 (2009);
         "P. Giannozzi et al., J. Phys.:Condens. Matter 29 465901 (2017);
         "P. Giannozzi et al., J. Chem. Phys. 152 154105 (2020);
          URL http://www.quantum-espresso.org", 
     in publications or presentations arising from this work. More details at
     http://www.quantum-espresso.org/quote

     Parallel version (MPI), running on     1 processors

     MPI processes distributed on     1 nodes
     4693 MiB available memory on the printing compute node when the environment starts

     Waiting for input...
     Reading input from standard input

     Current dimensions of program PWSCF are:
     Max number of different atomic species (ntypx) = 10
     Max number of k-points (npk) =  40000
     Max angular momentum in pseudopotentials (lmaxx) =  4

     IMPORTANT: XC functional enforced from input :
     Exchange-correlation= LDA
                           (   1   1   0   0   0   0   0)
     Any further DFT definition will be discarded
     Please, verify this is what you really want


     Atomic positions and unit cell read from directory:
     ./tmp_quartz_e11_p0.005/quartz_e11_p0.005.save/


     Subspace diagonalization in iterative solution of the eigenvalue problem:
     a serial algorithm will be used


     G-vector sticks info
     --------------------
     sticks:   dense  smooth     PW     G-vecs:    dense   smooth      PW
     Sum        2977    1491    475               136393    48283    8693

     Using Slab Decomposition



     bravais-lattice index     =            0
     lattice parameter (alat)  =       9.5087  a.u.
     unit-cell volume          =     767.8463 (a.u.)^3
     number of atoms/cell      =            9
     number of atomic types    =            2
     number of electrons       =        48.00
     number of Kohn-Sham states=           24
     kinetic-energy cutoff     =      60.0000  Ry
     charge density cutoff     =     480.0000  Ry
     Exchange-correlation= LDA
                           (   1   1   0   0   0   0   0)

     celldm(1)=   9.508748  celldm(2)=   0.000000  celldm(3)=   0.000000
     celldm(4)=   0.000000  celldm(5)=   0.000000  celldm(6)=   0.000000

     crystal axes: (cart. coord. in units of alat)
               a(1) = (   1.000000   0.000000   0.000000 )  
               a(2) = (  -0.500000   0.861717   0.000000 )  
               a(3) = (   0.000000   0.000000   1.036429 )  

     reciprocal axes: (cart. coord. in units 2 pi/alat)
               b(1) = (  1.000000  0.580237 -0.000000 )  
               b(2) = (  0.000000  1.160474  0.000000 )  
               b(3) = (  0.000000 -0.000000  0.964851 )  


     PseudoPot. # 1 for Si read from file:
     ./pseudos/Si.pz-vbc.UPF
     MD5 check sum: 9f25e6ff280f3123e9b3a84715b2e9c9
     Pseudo is Norm-conserving, Zval =  4.0
     Generated by new atomic code, or converted to UPF format
     Using radial grid of  431 points,  2 beta functions with: 
                l(1) =   0
                l(2) =   1

     PseudoPot. # 2 for O  read from file:
     ./pseudos/O.pz-van_ak.UPF
     MD5 check sum: b77f3d8cfe972ebbeca95ec6abb46c7c
     Pseudo is Ultrasoft, Zval =  6.0
     Generated by new atomic code, or converted to UPF format
     Using radial grid of  737 points,  4 beta functions with: 
                l(1) =   0
                l(2) =   0
                l(3) =   1
                l(4) =   1
     Q(r) pseudized with  8 coefficients,  rinner =    0.800   0.800   0.800


     atomic species   valence    mass     pseudopotential
     Si                4.00    28.08550     Si( 1.00)
     O                 6.00    15.99940     O ( 1.00)

     No symmetry found



   Cartesian axes

     site n.     atom                  positions (alat units)
         1        Si     tau(   1) = (   0.0928627   0.3095464   0.0645711  )
         2        Si     tau(   2) = (   0.5755584   0.0986676   0.2793869  )
         3        Si     tau(   3) = (  -0.1132815   0.5441761   0.5630670  )
         4        O      tau(   4) = (  -0.0029174   0.5051274   0.8597567  )
         5        O      tau(   5) = (   0.1154781   0.5314119   0.3163192  )
         6        O      tau(   6) = (  -0.1756290   0.8548360   0.4914284  )
         7        O      tau(   7) = (   0.3914636   0.1905046   0.0208532  )
         8        O      tau(   8) = (   0.6534196   0.3397591   0.4905056  )
         9        O      tau(   9) = (  -0.1235869   0.0728832   1.1632456  )

     number of k points=   288

     Number of k-points >= 100: set verbosity='high' to print them.

     Dense  grid:   136393 G-vectors     FFT dimensions: (  72,  72,  72)

     Smooth grid:    48283 G-vectors     FFT dimensions: (  48,  48,  50)

     Estimated max dynamical RAM per process >     158.31 MB

     The potential is recalculated from file :
     ./tmp_quartz_e11_p0.005/quartz_e11_p0.005.save/charge-density

     Starting wfcs are   36 randomized atomic wfcs

     Band Structure Calculation
     Davidson diagonalization with overlap

     ethr =  2.08E-13,  avg # of iterations = 31.1

     total cpu time spent up to now is      600.8 secs

     End of band structure calculation

     Number of k-points >= 100: set verbosity='high' to print the bands.

     highest occupied level (ev):     2.6687



               ==================================================
                            POLARIZATION CALCULATION
                         !!! NOT THOROUGHLY TESTED !!!
               --------------------------------------------------


                     K-POINTS STRINGS USED IN CALCULATIONS
                     ~~~~~~~~~~~~~~~~~~~~~~~~~~~~~~~~~~~~~

       G-vector along string (2 pi/a):  1.00000  0.58024  0.00000
       Modulus of the vector (1/bohr):  0.76396
       Number of k-points per string:   8
       Number of different strings  :  36


                               IONIC POLARIZATION
                               ~~~~~~~~~~~~~~~~~~

  ============================================================================
    Ion    Species    Charge              Position                Phase
  ----------------------------------------------------------------------------
     1        Si       4.000       0.0929  0.3095  0.0646    -0.91011 (mod 2)
     2        Si       4.000       0.5756  0.0987  0.2794     0.53124 (mod 2)
     3        Si       4.000      -0.1133  0.5442  0.5631     0.80988 (mod 2)
     4        O        6.000      -0.0029  0.5051  0.8598    -0.25894 (mod 2)
     5        O        6.000       0.1155  0.5314  0.3163     0.54294 (mod 2)
     6        O        6.000      -0.1756  0.8548  0.4914    -0.07773 (mod 2)
     7        O        6.000       0.3915  0.1905  0.0209    -0.98799 (mod 2)
     8        O        6.000       0.6534  0.3398  0.4905    -0.89664 (mod 2)
     9        O        6.000      -0.1236  0.0729  1.1632    -0.48778 (mod 2)
  ----------------------------------------------------------------------------
                                               IONIC PHASE:   0.26486 (mod 2)
  ============================================================================


                            ELECTRONIC POLARIZATION
                            ~~~~~~~~~~~~~~~~~~~~~~~

  ============================================================================
    String     Weight      First k-point in string         Phase
  ----------------------------------------------------------------------------
       1      0.010000      0.0000  0.0000  0.0000    -0.70515
       2      0.020000      0.0000  0.0000  0.0965    -0.70822
       3      0.020000      0.0000  0.0000  0.1930    -0.71076
       4      0.020000      0.0000  0.0000  0.2895    -0.71160
       5      0.020000      0.0000  0.0000  0.3859    -0.71058
       6      0.010000      0.0000  0.0000 -0.4824    -0.70835
       7      0.020000      0.0000  0.1160  0.0000    -0.70139
       8      0.040000      0.0000  0.1160  0.0965    -0.70560
       9      0.040000      0.0000  0.1160  0.1930    -0.70942
      10      0.040000      0.0000  0.1160  0.2895    -0.71117
      11      0.040000      0.0000  0.1160  0.3859    -0.71033
      12      0.020000      0.0000  0.1160 -0.4824    -0.70754
      13      0.020000      0.0000  0.2321  0.0000    -0.69778
      14      0.040000      0.0000  0.2321  0.0965    -0.70227
      15      0.040000      0.0000  0.2321  0.1930    -0.70702
      16      0.040000      0.0000  0.2321  0.2895    -0.70996
      17      0.040000      0.0000  0.2321  0.3859    -0.71007
      18      0.020000      0.0000  0.2321 -0.4824    -0.70764
      19      0.020000      0.0000  0.3481  0.0000    -0.69558
      20      0.040000      0.0000  0.3481  0.0965    -0.69932
      21      0.040000      0.0000  0.3481  0.1930    -0.70418
      22      0.040000      0.0000  0.3481  0.2895    -0.70806
      23      0.040000      0.0000  0.3481  0.3859    -0.70953
      24      0.020000      0.0000  0.3481 -0.4824    -0.70832
      25      0.020000      0.0000  0.4642  0.0000    -0.69605
      26      0.040000      0.0000  0.4642  0.0965    -0.69835
      27      0.040000      0.0000  0.4642  0.1930    -0.70233
      28      0.040000      0.0000  0.4642  0.2895    -0.70631
      29      0.040000      0.0000  0.4642  0.3859    -0.70883
      30      0.020000      0.0000  0.4642 -0.4824    -0.70913
      31      0.010000      0.0000 -0.5802  0.0000    -0.69937
      32      0.020000      0.0000 -0.5802  0.0965    -0.70015
      33      0.020000      0.0000 -0.5802  0.1930    -0.70265
      34      0.020000      0.0000 -0.5802  0.2895    -0.70582
      35      0.020000      0.0000 -0.5802  0.3859    -0.70854
      36      0.010000      0.0000 -0.5802 -0.4824    -0.70996
  ----------------------------------------------------------------------------
                                          ELECTRONIC PHASE:  -0.70597
  ============================================================================


                               SUMMARY OF PHASES
                               ~~~~~~~~~~~~~~~~~

                          Ionic Phase:  0.26486
                     Electronic Phase: -0.70597
                          TOTAL PHASE: -0.44111 MOD_TOT: 2


                             VALUES OF POLARIZATION
                             ~~~~~~~~~~~~~~~~~~~~~~

        The calculation of phases done along the direction of vector 1
        of the reciprocal lattice gives the following contribution to
        the polarization vector (in different units, and being Omega
        the volume of the unit cell):

           P =  -4.1944324  (mod  19.0174970)  (e/Omega).bohr

           P =  -0.0054626  (mod   0.0247673)  e/bohr^2

           P =  -0.3125410  (mod   1.4170565)  C/m^2

        The polarization direction is:  ( 1.00000 , 0.00000 , 0.00000 )


               ==================================================



     Writing all to output data dir ./tmp_quartz_e11_p0.005/quartz_e11_p0.005.save/ :
     XML data file, pseudopotentials, collected wavefunctions

     init_run     :      1.25s CPU      1.50s WALL (       1 calls)
     electrons    :    629.40s CPU    634.01s WALL (       1 calls)

     Called by init_run:
     wfcinit      :      0.00s CPU      0.00s WALL (       1 calls)
     potinit      :      0.37s CPU      0.43s WALL (       1 calls)
     hinit0       :      0.58s CPU      0.66s WALL (       1 calls)

     Called by electrons:
     c_bands      :    594.78s CPU    599.08s WALL (       1 calls)
     v_of_rho     :      0.02s CPU      0.03s WALL (       1 calls)
     newd         :      0.07s CPU      0.16s WALL (       1 calls)

     Called by c_bands:
     init_us_2    :      1.39s CPU      1.72s WALL (     792 calls)
     cegterg      :    565.00s CPU    566.87s WALL (     576 calls)

     Called by *egterg:
     cdiaghg      :      6.83s CPU      6.86s WALL (    9231 calls)
     h_psi        :    461.16s CPU    462.83s WALL (    9807 calls)
     s_psi        :     17.45s CPU     17.51s WALL (    9807 calls)
     g_psi        :      4.50s CPU      4.51s WALL (    8943 calls)

     Called by h_psi:
     h_psi:calbec :     22.29s CPU     22.38s WALL (    9807 calls)
     vloc_psi     :    418.27s CPU    419.78s WALL (    9807 calls)
     add_vuspsi   :     18.02s CPU     18.10s WALL (    9807 calls)

     General routines
     calbec       :     23.22s CPU     23.42s WALL (   10311 calls)
     fft          :      0.46s CPU      0.48s WALL (       5 calls)
     ffts         :      0.34s CPU      0.34s WALL (       1 calls)
     fftw         :    317.50s CPU    318.67s WALL (  434060 calls)
     interpolate  :      0.34s CPU      0.34s WALL (       1 calls)
     davcio       :      0.50s CPU      2.69s WALL (    1080 calls)

     Parallel routines

     PWSCF        :  10m31.10s CPU  10m37.96s WALL


   This run was terminated on:   4:43:48  27Nov2025            

=------------------------------------------------------------------------------=
   JOB DONE.
=------------------------------------------------------------------------------=
