
     Program PWSCF v.7.4.1 starts on 27Nov2025 at  4: 2:55 

     This program is part of the open-source Quantum ESPRESSO suite
     for quantum simulation of materials; please cite
         "P. Giannozzi et al., J. Phys.:Condens. Matter 21 395502 (2009);
         "P. Giannozzi et al., J. Phys.:Condens. Matter 29 465901 (2017);
         "P. Giannozzi et al., J. Chem. Phys. 152 154105 (2020);
          URL http://www.quantum-espresso.org", 
     in publications or presentations arising from this work. More details at
     http://www.quantum-espresso.org/quote

     Parallel version (MPI), running on     1 processors

     MPI processes distributed on     1 nodes
     5037 MiB available memory on the printing compute node when the environment starts

     Waiting for input...
     Reading input from standard input

     Current dimensions of program PWSCF are:
     Max number of different atomic species (ntypx) = 10
     Max number of k-points (npk) =  40000
     Max angular momentum in pseudopotentials (lmaxx) =  4

     IMPORTANT: XC functional enforced from input :
     Exchange-correlation= LDA
                           (   1   1   0   0   0   0   0)
     Any further DFT definition will be discarded
     Please, verify this is what you really want


     Atomic positions and unit cell read from directory:
     ./tmp_quartz_e11_0/quartz_e11_0.save/
     Atomic positions from file used, from input discarded


     Subspace diagonalization in iterative solution of the eigenvalue problem:
     a serial algorithm will be used


     G-vector sticks info
     --------------------
     sticks:   dense  smooth     PW     G-vecs:    dense   smooth      PW
     Sum        2941    1483    475               135645    48043    8673

     Using Slab Decomposition



     bravais-lattice index     =            0
     lattice parameter (alat)  =       9.4614  a.u.
     unit-cell volume          =     764.0262 (a.u.)^3
     number of atoms/cell      =            9
     number of atomic types    =            2
     number of electrons       =        48.00
     number of Kohn-Sham states=           24
     kinetic-energy cutoff     =      60.0000  Ry
     charge density cutoff     =     480.0000  Ry
     Exchange-correlation= LDA
                           (   1   1   0   0   0   0   0)

     celldm(1)=   9.508748  celldm(2)=   0.000000  celldm(3)=   0.000000
     celldm(4)=   0.000000  celldm(5)=   0.000000  celldm(6)=   0.000000

     crystal axes: (cart. coord. in units of alat)
               a(1) = (   1.000000   0.000000   0.000000 )  
               a(2) = (  -0.500000   0.866025   0.000000 )  
               a(3) = (   0.000000   0.000000   1.041611 )  

     reciprocal axes: (cart. coord. in units 2 pi/alat)
               b(1) = (  1.000000  0.577350 -0.000000 )  
               b(2) = (  0.000000  1.154700  0.000000 )  
               b(3) = (  0.000000 -0.000000  0.960051 )  


     PseudoPot. # 1 for Si read from file:
     ./pseudos/Si.pz-vbc.UPF
     MD5 check sum: 9f25e6ff280f3123e9b3a84715b2e9c9
     Pseudo is Norm-conserving, Zval =  4.0
     Generated by new atomic code, or converted to UPF format
     Using radial grid of  431 points,  2 beta functions with: 
                l(1) =   0
                l(2) =   1

     PseudoPot. # 2 for O  read from file:
     ./pseudos/O.pz-van_ak.UPF
     MD5 check sum: b77f3d8cfe972ebbeca95ec6abb46c7c
     Pseudo is Ultrasoft, Zval =  6.0
     Generated by new atomic code, or converted to UPF format
     Using radial grid of  737 points,  4 beta functions with: 
                l(1) =   0
                l(2) =   0
                l(3) =   1
                l(4) =   1
     Q(r) pseudized with  8 coefficients,  rinner =    0.800   0.800   0.800


     atomic species   valence    mass     pseudopotential
     Si                4.00    28.08550     Si( 1.00)
     O                 6.00    15.99940     O ( 1.00)

     No symmetry found



   Cartesian axes

     site n.     atom                  positions (alat units)
         1        Si     tau(   1) = (   0.0928627   0.3110941   0.0648940  )
         2        Si     tau(   2) = (   0.5755584   0.0991610   0.2807838  )
         3        Si     tau(   3) = (  -0.1132815   0.5468970   0.5658823  )
         4        O      tau(   4) = (  -0.0029174   0.5076530   0.8640555  )
         5        O      tau(   5) = (   0.1154781   0.5340690   0.3179008  )
         6        O      tau(   6) = (  -0.1756290   0.8591102   0.4938856  )
         7        O      tau(   7) = (   0.3914636   0.1914571   0.0209575  )
         8        O      tau(   8) = (   0.6534196   0.3414579   0.4929582  )
         9        O      tau(   9) = (  -0.1235869   0.0732476   1.1690618  )

     number of k points=   288

     Number of k-points >= 100: set verbosity='high' to print them.

     Dense  grid:   135645 G-vectors     FFT dimensions: (  72,  72,  72)

     Smooth grid:    48043 G-vectors     FFT dimensions: (  48,  48,  50)

     Estimated max dynamical RAM per process >     157.58 MB

     The potential is recalculated from file :
     ./tmp_quartz_e11_0/quartz_e11_0.save/charge-density

     Starting wfcs are   36 randomized atomic wfcs

     Band Structure Calculation
     Davidson diagonalization with overlap

     ethr =  2.08E-13,  avg # of iterations = 31.1

     total cpu time spent up to now is      549.8 secs

     End of band structure calculation

     Number of k-points >= 100: set verbosity='high' to print the bands.

     highest occupied level (ev):     2.7159



               ==================================================
                            POLARIZATION CALCULATION
                         !!! NOT THOROUGHLY TESTED !!!
               --------------------------------------------------


                     K-POINTS STRINGS USED IN CALCULATIONS
                     ~~~~~~~~~~~~~~~~~~~~~~~~~~~~~~~~~~~~~

       G-vector along string (2 pi/a):  1.00000  0.57735  0.00000
       Modulus of the vector (1/bohr):  0.76682
       Number of k-points per string:   8
       Number of different strings  :  36


                               IONIC POLARIZATION
                               ~~~~~~~~~~~~~~~~~~

  ============================================================================
    Ion    Species    Charge              Position                Phase
  ----------------------------------------------------------------------------
     1        Si       4.000       0.0929  0.3111  0.0649    -0.91011 (mod 2)
     2        Si       4.000       0.5756  0.0992  0.2808     0.53124 (mod 2)
     3        Si       4.000      -0.1133  0.5469  0.5659     0.80988 (mod 2)
     4        O        6.000      -0.0029  0.5077  0.8641    -0.25894 (mod 2)
     5        O        6.000       0.1155  0.5341  0.3179     0.54294 (mod 2)
     6        O        6.000      -0.1756  0.8591  0.4939    -0.07773 (mod 2)
     7        O        6.000       0.3915  0.1915  0.0210    -0.98799 (mod 2)
     8        O        6.000       0.6534  0.3415  0.4930    -0.89664 (mod 2)
     9        O        6.000      -0.1236  0.0732  1.1691    -0.48778 (mod 2)
  ----------------------------------------------------------------------------
                                               IONIC PHASE:   0.26486 (mod 2)
  ============================================================================


                            ELECTRONIC POLARIZATION
                            ~~~~~~~~~~~~~~~~~~~~~~~

  ============================================================================
    String     Weight      First k-point in string         Phase
  ----------------------------------------------------------------------------
       1      0.010000      0.0000  0.0000  0.0000    -0.34228
       2      0.020000      0.0000  0.0000  0.0960    -0.35627
       3      0.020000      0.0000  0.0000  0.1920    -0.36993
       4      0.020000      0.0000  0.0000  0.2880    -0.38260
       5      0.020000      0.0000  0.0000  0.3840    -0.39835
       6      0.010000      0.0000  0.0000 -0.4800    -0.41202
       7      0.020000      0.0000  0.1155  0.0000    -0.35171
       8      0.040000      0.0000  0.1155  0.0960    -0.35826
       9      0.040000      0.0000  0.1155  0.1920    -0.37246
      10      0.040000      0.0000  0.1155  0.2880    -0.39160
      11      0.040000      0.0000  0.1155  0.3840    -0.41834
      12      0.020000      0.0000  0.1155 -0.4800    -0.44456
      13      0.020000      0.0000  0.2309  0.0000    -0.35327
      14      0.040000      0.0000  0.2309  0.0960    -0.35288
      15      0.040000      0.0000  0.2309  0.1920    -0.36698
      16      0.040000      0.0000  0.2309  0.2880    -0.38975
      17      0.040000      0.0000  0.2309  0.3840    -0.42188
      18      0.020000      0.0000  0.2309 -0.4800    -0.45527
      19      0.020000      0.0000  0.3464  0.0000    -0.34605
      20      0.040000      0.0000  0.3464  0.0960    -0.34098
      21      0.040000      0.0000  0.3464  0.1920    -0.35522
      22      0.040000      0.0000  0.3464  0.2880    -0.38013
      23      0.040000      0.0000  0.3464  0.3840    -0.41245
      24      0.020000      0.0000  0.3464 -0.4800    -0.44516
      25      0.020000      0.0000  0.4619  0.0000    -0.33435
      26      0.040000      0.0000  0.4619  0.0960    -0.32661
      27      0.040000      0.0000  0.4619  0.1920    -0.33965
      28      0.040000      0.0000  0.4619  0.2880    -0.36496
      29      0.040000      0.0000  0.4619  0.3840    -0.39539
      30      0.020000      0.0000  0.4619 -0.4800    -0.42340
      31      0.010000      0.0000 -0.5774  0.0000    -0.32478
      32      0.020000      0.0000 -0.5774  0.0960    -0.31722
      33      0.020000      0.0000 -0.5774  0.1920    -0.32643
      34      0.020000      0.0000 -0.5774  0.2880    -0.34741
      35      0.020000      0.0000 -0.5774  0.3840    -0.37320
      36      0.010000      0.0000 -0.5774 -0.4800    -0.39556
  ----------------------------------------------------------------------------
                                          ELECTRONIC PHASE:  -0.37475
  ============================================================================


                               SUMMARY OF PHASES
                               ~~~~~~~~~~~~~~~~~

                          Ionic Phase:  0.26486
                     Electronic Phase: -0.37475
                          TOTAL PHASE: -0.10989 MOD_TOT: 2


                             VALUES OF POLARIZATION
                             ~~~~~~~~~~~~~~~~~~~~~~

        The calculation of phases done along the direction of vector 1
        of the reciprocal lattice gives the following contribution to
        the polarization vector (in different units, and being Omega
        the volume of the unit cell):

           P =  -1.0397272  (mod  18.9228822)  (e/Omega).bohr

           P =  -0.0013609  (mod   0.0247673)  e/bohr^2

           P =  -0.0778609  (mod   1.4170565)  C/m^2

        The polarization direction is:  ( 1.00000 , 0.00000 , 0.00000 )


               ==================================================



     Writing all to output data dir ./tmp_quartz_e11_0/quartz_e11_0.save/ :
     XML data file, pseudopotentials, collected wavefunctions

     init_run     :      1.15s CPU      1.25s WALL (       1 calls)
     electrons    :    577.76s CPU    582.02s WALL (       1 calls)

     Called by init_run:
     wfcinit      :      0.00s CPU      0.00s WALL (       1 calls)
     potinit      :      0.32s CPU      0.33s WALL (       1 calls)
     hinit0       :      0.56s CPU      0.57s WALL (       1 calls)

     Called by electrons:
     c_bands      :    544.41s CPU    548.38s WALL (       1 calls)
     v_of_rho     :      0.02s CPU      0.02s WALL (       1 calls)
     newd         :      0.06s CPU      0.13s WALL (       1 calls)

     Called by c_bands:
     init_us_2    :      1.29s CPU      1.62s WALL (     792 calls)
     cegterg      :    517.33s CPU    519.14s WALL (     576 calls)

     Called by *egterg:
     cdiaghg      :      6.53s CPU      6.55s WALL (    9240 calls)
     h_psi        :    424.55s CPU    426.17s WALL (    9816 calls)
     s_psi        :     16.21s CPU     16.27s WALL (    9816 calls)
     g_psi        :      4.41s CPU      4.42s WALL (    8952 calls)

     Called by h_psi:
     h_psi:calbec :     20.36s CPU     20.45s WALL (    9816 calls)
     vloc_psi     :    385.39s CPU    386.87s WALL (    9816 calls)
     add_vuspsi   :     16.80s CPU     16.86s WALL (    9816 calls)

     General routines
     calbec       :     21.24s CPU     21.44s WALL (   10320 calls)
     fft          :      0.44s CPU      0.44s WALL (       5 calls)
     ffts         :      0.30s CPU      0.30s WALL (       1 calls)
     fftw         :    301.76s CPU    302.94s WALL (  433836 calls)
     interpolate  :      0.30s CPU      0.30s WALL (       1 calls)
     davcio       :      0.49s CPU      2.45s WALL (    1080 calls)

     Parallel routines

     PWSCF        :   9m39.28s CPU   9m46.96s WALL


   This run was terminated on:   4:12:42  27Nov2025            

=------------------------------------------------------------------------------=
   JOB DONE.
=------------------------------------------------------------------------------=
