
     Program PWSCF v.7.4.1 starts on 27Nov2025 at  4:43:48 

     This program is part of the open-source Quantum ESPRESSO suite
     for quantum simulation of materials; please cite
         "P. Giannozzi et al., J. Phys.:Condens. Matter 21 395502 (2009);
         "P. Giannozzi et al., J. Phys.:Condens. Matter 29 465901 (2017);
         "P. Giannozzi et al., J. Chem. Phys. 152 154105 (2020);
          URL http://www.quantum-espresso.org", 
     in publications or presentations arising from this work. More details at
     http://www.quantum-espresso.org/quote

     Parallel version (MPI), running on     1 processors

     MPI processes distributed on     1 nodes
     3500 MiB available memory on the printing compute node when the environment starts

     Waiting for input...
     Reading input from standard input

     Current dimensions of program PWSCF are:
     Max number of different atomic species (ntypx) = 10
     Max number of k-points (npk) =  40000
     Max angular momentum in pseudopotentials (lmaxx) =  4

     IMPORTANT: XC functional enforced from input :
     Exchange-correlation= LDA
                           (   1   1   0   0   0   0   0)
     Any further DFT definition will be discarded
     Please, verify this is what you really want


     Atomic positions and unit cell read from directory:
     ./tmp_quartz_e11_m0.005/quartz_e11_m0.005.save/


     Subspace diagonalization in iterative solution of the eigenvalue problem:
     a serial algorithm will be used


     G-vector sticks info
     --------------------
     sticks:   dense  smooth     PW     G-vecs:    dense   smooth      PW
     Sum        2929    1483    475               134989    47767    8633

     Using Slab Decomposition



     bravais-lattice index     =            0
     lattice parameter (alat)  =       9.4141  a.u.
     unit-cell volume          =     760.2060 (a.u.)^3
     number of atoms/cell      =            9
     number of atomic types    =            2
     number of electrons       =        48.00
     number of Kohn-Sham states=           24
     kinetic-energy cutoff     =      60.0000  Ry
     charge density cutoff     =     480.0000  Ry
     Exchange-correlation= LDA
                           (   1   1   0   0   0   0   0)

     celldm(1)=   9.414134  celldm(2)=   0.000000  celldm(3)=   0.000000
     celldm(4)=   0.000000  celldm(5)=   0.000000  celldm(6)=   0.000000

     crystal axes: (cart. coord. in units of alat)
               a(1) = (   1.000000   0.000000   0.000000 )  
               a(2) = (  -0.500000   0.870377   0.000000 )  
               a(3) = (   0.000000   0.000000   1.046846 )  

     reciprocal axes: (cart. coord. in units 2 pi/alat)
               b(1) = (  1.000000  0.574464 -0.000000 )  
               b(2) = (  0.000000  1.148927  0.000000 )  
               b(3) = (  0.000000 -0.000000  0.955251 )  


     PseudoPot. # 1 for Si read from file:
     ./pseudos/Si.pz-vbc.UPF
     MD5 check sum: 9f25e6ff280f3123e9b3a84715b2e9c9
     Pseudo is Norm-conserving, Zval =  4.0
     Generated by new atomic code, or converted to UPF format
     Using radial grid of  431 points,  2 beta functions with: 
                l(1) =   0
                l(2) =   1

     PseudoPot. # 2 for O  read from file:
     ./pseudos/O.pz-van_ak.UPF
     MD5 check sum: b77f3d8cfe972ebbeca95ec6abb46c7c
     Pseudo is Ultrasoft, Zval =  6.0
     Generated by new atomic code, or converted to UPF format
     Using radial grid of  737 points,  4 beta functions with: 
                l(1) =   0
                l(2) =   0
                l(3) =   1
                l(4) =   1
     Q(r) pseudized with  8 coefficients,  rinner =    0.800   0.800   0.800


     atomic species   valence    mass     pseudopotential
     Si                4.00    28.08550     Si( 1.00)
     O                 6.00    15.99940     O ( 1.00)

     No symmetry found



   Cartesian axes

     site n.     atom                  positions (alat units)
         1        Si     tau(   1) = (   0.0928627   0.3126574   0.0652201  )
         2        Si     tau(   2) = (   0.5755584   0.0996593   0.2821948  )
         3        Si     tau(   3) = (  -0.1132815   0.5496452   0.5687260  )
         4        O      tau(   4) = (  -0.0029174   0.5102040   0.8683975  )
         5        O      tau(   5) = (   0.1154781   0.5367528   0.3194983  )
         6        O      tau(   6) = (  -0.1756290   0.8634274   0.4963674  )
         7        O      tau(   7) = (   0.3914636   0.1924192   0.0210628  )
         8        O      tau(   8) = (   0.6534196   0.3431737   0.4954354  )
         9        O      tau(   9) = (  -0.1235869   0.0736157   1.1749366  )

     number of k points=   288

     Number of k-points >= 100: set verbosity='high' to print them.

     Dense  grid:   134989 G-vectors     FFT dimensions: (  72,  72,  72)

     Smooth grid:    47767 G-vectors     FFT dimensions: (  48,  48,  50)

     Estimated max dynamical RAM per process >     156.93 MB

     The potential is recalculated from file :
     ./tmp_quartz_e11_m0.005/quartz_e11_m0.005.save/charge-density

     Starting wfcs are   36 randomized atomic wfcs

     Band Structure Calculation
     Davidson diagonalization with overlap

     ethr =  2.08E-13,  avg # of iterations = 30.9

     total cpu time spent up to now is      564.9 secs

     End of band structure calculation

     Number of k-points >= 100: set verbosity='high' to print the bands.

     highest occupied level (ev):     2.7638



               ==================================================
                            POLARIZATION CALCULATION
                         !!! NOT THOROUGHLY TESTED !!!
               --------------------------------------------------


                     K-POINTS STRINGS USED IN CALCULATIONS
                     ~~~~~~~~~~~~~~~~~~~~~~~~~~~~~~~~~~~~~

       G-vector along string (2 pi/a):  1.00000  0.57446  0.00000
       Modulus of the vector (1/bohr):  0.76971
       Number of k-points per string:   8
       Number of different strings  :  36


                               IONIC POLARIZATION
                               ~~~~~~~~~~~~~~~~~~

  ============================================================================
    Ion    Species    Charge              Position                Phase
  ----------------------------------------------------------------------------
     1        Si       4.000       0.0929  0.3127  0.0652    -0.91011 (mod 2)
     2        Si       4.000       0.5756  0.0997  0.2822     0.53124 (mod 2)
     3        Si       4.000      -0.1133  0.5496  0.5687     0.80988 (mod 2)
     4        O        6.000      -0.0029  0.5102  0.8684    -0.25894 (mod 2)
     5        O        6.000       0.1155  0.5368  0.3195     0.54294 (mod 2)
     6        O        6.000      -0.1756  0.8634  0.4964    -0.07773 (mod 2)
     7        O        6.000       0.3915  0.1924  0.0211    -0.98799 (mod 2)
     8        O        6.000       0.6534  0.3432  0.4954    -0.89664 (mod 2)
     9        O        6.000      -0.1236  0.0736  1.1749    -0.48778 (mod 2)
  ----------------------------------------------------------------------------
                                               IONIC PHASE:   0.26486 (mod 2)
  ============================================================================


                            ELECTRONIC POLARIZATION
                            ~~~~~~~~~~~~~~~~~~~~~~~

  ============================================================================
    String     Weight      First k-point in string         Phase
  ----------------------------------------------------------------------------
       1      0.010000      0.0000  0.0000  0.0000    -0.43444
       2      0.020000      0.0000  0.0000  0.0955    -0.43354
       3      0.020000      0.0000  0.0000  0.1911    -0.43129
       4      0.020000      0.0000  0.0000  0.2866    -0.42869
       5      0.020000      0.0000  0.0000  0.3821    -0.42670
       6      0.010000      0.0000  0.0000 -0.4776    -0.42597
       7      0.020000      0.0000  0.1149  0.0000    -0.43474
       8      0.040000      0.0000  0.1149  0.0955    -0.43394
       9      0.040000      0.0000  0.1149  0.1911    -0.43175
      10      0.040000      0.0000  0.1149  0.2866    -0.42914
      11      0.040000      0.0000  0.1149  0.3821    -0.42706
      12      0.020000      0.0000  0.1149 -0.4776    -0.42620
      13      0.020000      0.0000  0.2298  0.0000    -0.43556
      14      0.040000      0.0000  0.2298  0.0955    -0.43486
      15      0.040000      0.0000  0.2298  0.1911    -0.43269
      16      0.040000      0.0000  0.2298  0.2866    -0.42999
      17      0.040000      0.0000  0.2298  0.3821    -0.42776
      18      0.020000      0.0000  0.2298 -0.4776    -0.42672
      19      0.020000      0.0000  0.3447  0.0000    -0.43667
      20      0.040000      0.0000  0.3447  0.0955    -0.43597
      21      0.040000      0.0000  0.3447  0.1911    -0.43370
      22      0.040000      0.0000  0.3447  0.2866    -0.43083
      23      0.040000      0.0000  0.3447  0.3821    -0.42841
      24      0.020000      0.0000  0.3447 -0.4776    -0.42725
      25      0.020000      0.0000  0.4596  0.0000    -0.43762
      26      0.040000      0.0000  0.4596  0.0955    -0.43679
      27      0.040000      0.0000  0.4596  0.1911    -0.43430
      28      0.040000      0.0000  0.4596  0.2866    -0.43123
      29      0.040000      0.0000  0.4596  0.3821    -0.42871
      30      0.020000      0.0000  0.4596 -0.4776    -0.42759
      31      0.010000      0.0000 -0.5745  0.0000    -0.43800
      32      0.020000      0.0000 -0.5745  0.0955    -0.43694
      33      0.020000      0.0000 -0.5745  0.1911    -0.43424
      34      0.020000      0.0000 -0.5745  0.2866    -0.43107
      35      0.020000      0.0000 -0.5745  0.3821    -0.42861
      36      0.010000      0.0000 -0.5745 -0.4776    -0.42769
  ----------------------------------------------------------------------------
                                          ELECTRONIC PHASE:  -0.43161
  ============================================================================


                               SUMMARY OF PHASES
                               ~~~~~~~~~~~~~~~~~

                          Ionic Phase:  0.26486
                     Electronic Phase: -0.43161
                          TOTAL PHASE: -0.16675 MOD_TOT: 2


                             VALUES OF POLARIZATION
                             ~~~~~~~~~~~~~~~~~~~~~~

        The calculation of phases done along the direction of vector 1
        of the reciprocal lattice gives the following contribution to
        the polarization vector (in different units, and being Omega
        the volume of the unit cell):

           P =  -1.5698441  (mod  18.8282673)  (e/Omega).bohr

           P =  -0.0020650  (mod   0.0247673)  e/bohr^2

           P =  -0.1181499  (mod   1.4170565)  C/m^2

        The polarization direction is:  ( 1.00000 , 0.00000 , 0.00000 )


               ==================================================



     Writing all to output data dir ./tmp_quartz_e11_m0.005/quartz_e11_m0.005.save/ :
     XML data file, pseudopotentials, collected wavefunctions

     init_run     :      1.16s CPU      1.28s WALL (       1 calls)
     electrons    :    592.64s CPU    596.89s WALL (       1 calls)

     Called by init_run:
     wfcinit      :      0.00s CPU      0.00s WALL (       1 calls)
     potinit      :      0.33s CPU      0.36s WALL (       1 calls)
     hinit0       :      0.56s CPU      0.58s WALL (       1 calls)

     Called by electrons:
     c_bands      :    559.59s CPU    563.51s WALL (       1 calls)
     v_of_rho     :      0.02s CPU      0.02s WALL (       1 calls)
     newd         :      0.05s CPU      0.11s WALL (       1 calls)

     Called by c_bands:
     init_us_2    :      1.33s CPU      1.61s WALL (     792 calls)
     cegterg      :    531.64s CPU    533.37s WALL (     576 calls)

     Called by *egterg:
     cdiaghg      :      6.63s CPU      6.65s WALL (    9190 calls)
     h_psi        :    434.14s CPU    435.71s WALL (    9766 calls)
     s_psi        :     16.68s CPU     16.73s WALL (    9766 calls)
     g_psi        :      4.42s CPU      4.43s WALL (    8902 calls)

     Called by h_psi:
     h_psi:calbec :     21.70s CPU     21.78s WALL (    9766 calls)
     vloc_psi     :    393.32s CPU    394.75s WALL (    9766 calls)
     add_vuspsi   :     17.10s CPU     17.16s WALL (    9766 calls)

     General routines
     calbec       :     22.54s CPU     22.75s WALL (   10270 calls)
     fft          :      0.44s CPU      0.45s WALL (       5 calls)
     ffts         :      0.30s CPU      0.30s WALL (       1 calls)
     fftw         :    304.48s CPU    305.61s WALL (  433202 calls)
     interpolate  :      0.31s CPU      0.31s WALL (       1 calls)
     davcio       :      0.43s CPU      2.46s WALL (    1080 calls)

     Parallel routines

     PWSCF        :   9m54.19s CPU  10m 1.57s WALL


   This run was terminated on:   4:53:49  27Nov2025            

=------------------------------------------------------------------------------=
   JOB DONE.
=------------------------------------------------------------------------------=
