
     Program PWSCF v.7.4.1 starts on 25Nov2025 at 22:28:10 

     This program is part of the open-source Quantum ESPRESSO suite
     for quantum simulation of materials; please cite
         "P. Giannozzi et al., J. Phys.:Condens. Matter 21 395502 (2009);
         "P. Giannozzi et al., J. Phys.:Condens. Matter 29 465901 (2017);
         "P. Giannozzi et al., J. Chem. Phys. 152 154105 (2020);
          URL http://www.quantum-espresso.org", 
     in publications or presentations arising from this work. More details at
     http://www.quantum-espresso.org/quote

     Parallel version (MPI), running on     1 processors

     MPI processes distributed on     1 nodes
     5065 MiB available memory on the printing compute node when the environment starts

     Waiting for input...
     Reading input from standard input

     Current dimensions of program PWSCF are:
     Max number of different atomic species (ntypx) = 10
     Max number of k-points (npk) =  40000
     Max angular momentum in pseudopotentials (lmaxx) =  4

     IMPORTANT: XC functional enforced from input :
     Exchange-correlation= LDA
                           (   1   1   0   0   0   0   0)
     Any further DFT definition will be discarded
     Please, verify this is what you really want


     Subspace diagonalization in iterative solution of the eigenvalue problem:
     a serial algorithm will be used


     G-vector sticks info
     --------------------
     sticks:   dense  smooth     PW     G-vecs:    dense   smooth      PW
     Sum        2857    1417    421               136007    48015    7335

     Using Slab Decomposition



     bravais-lattice index     =            4
     lattice parameter (alat)  =       9.2789  a.u.
     unit-cell volume          =     765.5464 (a.u.)^3
     number of atoms/cell      =            9
     number of atomic types    =            2
     number of electrons       =        48.00
     number of Kohn-Sham states=           24
     kinetic-energy cutoff     =      60.0000  Ry
     charge density cutoff     =     480.0000  Ry
     scf convergence threshold =      1.0E-08
     mixing beta               =       0.3000
     number of iterations used =            8  plain     mixing
     energy convergence thresh.=      1.0E-04
     force convergence thresh. =      1.0E-03
     press convergence thresh. =      5.0E-01
     Exchange-correlation= LDA
                           (   1   1   0   0   0   0   0)
     nstep                     =           50


     celldm(1)=   9.278900  celldm(2)=   0.000000  celldm(3)=   1.106500
     celldm(4)=   0.000000  celldm(5)=   0.000000  celldm(6)=   0.000000

     crystal axes: (cart. coord. in units of alat)
               a(1) = (   1.000000   0.000000   0.000000 )  
               a(2) = (  -0.500000   0.866025   0.000000 )  
               a(3) = (   0.000000   0.000000   1.106500 )  

     reciprocal axes: (cart. coord. in units 2 pi/alat)
               b(1) = (  1.000000  0.577350 -0.000000 )  
               b(2) = (  0.000000  1.154701  0.000000 )  
               b(3) = (  0.000000 -0.000000  0.903751 )  


     PseudoPot. # 1 for Si read from file:
     ./pseudos/Si.pz-vbc.UPF
     MD5 check sum: 9f25e6ff280f3123e9b3a84715b2e9c9
     Pseudo is Norm-conserving, Zval =  4.0
     Generated by new atomic code, or converted to UPF format
     Using radial grid of  431 points,  2 beta functions with: 
                l(1) =   0
                l(2) =   1

     PseudoPot. # 2 for O  read from file:
     ./pseudos/O.pz-van_ak.UPF
     MD5 check sum: b77f3d8cfe972ebbeca95ec6abb46c7c
     Pseudo is Ultrasoft, Zval =  6.0
     Generated by new atomic code, or converted to UPF format
     Using radial grid of  737 points,  4 beta functions with: 
                l(1) =   0
                l(2) =   0
                l(3) =   1
                l(4) =   1
     Q(r) pseudized with  8 coefficients,  rinner =    0.800   0.800   0.800


     atomic species   valence    mass     pseudopotential
     Si                4.00    28.08550     Si( 1.00)
     O                 6.00    15.99940     O ( 1.00)

     No symmetry found



   Cartesian axes

     site n.     atom                  positions (alat units)
         1        Si     tau(   1) = (   0.2655445   0.4599366   0.0000000  )
         2        Si     tau(   2) = (   0.4689110   0.0000000   0.3688330  )
         3        Si     tau(   3) = (  -0.2344555   0.4060888   0.7376670  )
         4        O      tau(   4) = (   0.0625260   0.3580097   0.8684819  )
         5        O      tau(   5) = (   0.1586915   0.7411697   0.2380181  )
         6        O      tau(   6) = (  -0.2212435   0.6329165   0.6084544  )
         7        O      tau(   7) = (   0.4374740   0.5080157   0.2380181  )
         8        O      tau(   8) = (   0.3413085   0.1248557   0.6084544  )
         9        O      tau(   9) = (   0.1346115   0.2331540   0.8684819  )

     number of k points=   112

     Number of k-points >= 100: set verbosity='high' to print them.

     Dense  grid:   136007 G-vectors     FFT dimensions: (  72,  72,  72)

     Smooth grid:    48015 G-vectors     FFT dimensions: (  45,  45,  54)

     Estimated max dynamical RAM per process >     465.28 MB

     Initial potential from superposition of free atoms

     starting charge      47.9985, renormalised to      48.0000
     Starting wfcs are   36 randomized atomic wfcs

     total cpu time spent up to now is       10.3 secs

     Self-consistent Calculation

     iteration #  1     ecut=    60.00 Ry     beta= 0.30
     Davidson diagonalization with overlap
     ethr =  1.00E-02,  avg # of iterations =  3.0

     total cpu time spent up to now is       31.3 secs

     total energy              =    -210.12837628 Ry
     estimated scf accuracy    <       4.04444474 Ry

     iteration #  2     ecut=    60.00 Ry     beta= 0.30
     Davidson diagonalization with overlap
     ethr =  8.43E-03,  avg # of iterations =  2.1

     total cpu time spent up to now is       49.4 secs

     total energy              =    -210.46518489 Ry
     estimated scf accuracy    <       0.49727093 Ry

     iteration #  3     ecut=    60.00 Ry     beta= 0.30
     Davidson diagonalization with overlap
     ethr =  1.04E-03,  avg # of iterations = 12.2

     total cpu time spent up to now is       81.8 secs

     total energy              =    -210.86877041 Ry
     estimated scf accuracy    <       1.71562262 Ry

     iteration #  4     ecut=    60.00 Ry     beta= 0.30
     Davidson diagonalization with overlap
     ethr =  1.04E-03,  avg # of iterations =  1.0

     total cpu time spent up to now is       95.4 secs

     total energy              =    -210.24457579 Ry
     estimated scf accuracy    <       1.46371045 Ry

     iteration #  5     ecut=    60.00 Ry     beta= 0.30
     Davidson diagonalization with overlap
     ethr =  1.04E-03,  avg # of iterations =  7.7

     total cpu time spent up to now is      123.5 secs

     total energy              =    -210.83370815 Ry
     estimated scf accuracy    <       0.78751670 Ry

     iteration #  6     ecut=    60.00 Ry     beta= 0.30
     Davidson diagonalization with overlap
     ethr =  1.04E-03,  avg # of iterations =  1.0

     total cpu time spent up to now is      137.4 secs

     total energy              =    -210.60942995 Ry
     estimated scf accuracy    <       0.74378038 Ry

     iteration #  7     ecut=    60.00 Ry     beta= 0.30
     Davidson diagonalization with overlap
     ethr =  1.04E-03,  avg # of iterations =  5.7

     total cpu time spent up to now is      155.8 secs

     total energy              =    -210.68596093 Ry
     estimated scf accuracy    <       0.07319204 Ry

     iteration #  8     ecut=    60.00 Ry     beta= 0.30
     Davidson diagonalization with overlap
     ethr =  1.52E-04,  avg # of iterations =  5.8

     total cpu time spent up to now is      179.2 secs

     total energy              =    -210.70350553 Ry
     estimated scf accuracy    <       0.05333529 Ry

     iteration #  9     ecut=    60.00 Ry     beta= 0.30
     Davidson diagonalization with overlap
     ethr =  1.11E-04,  avg # of iterations =  1.0

     total cpu time spent up to now is      192.9 secs

     total energy              =    -210.70420272 Ry
     estimated scf accuracy    <       0.05222218 Ry

     iteration # 10     ecut=    60.00 Ry     beta= 0.30
     Davidson diagonalization with overlap
     ethr =  1.09E-04,  avg # of iterations =  1.0

     total cpu time spent up to now is      206.5 secs

     total energy              =    -210.70629552 Ry
     estimated scf accuracy    <       0.05202020 Ry

     iteration # 11     ecut=    60.00 Ry     beta= 0.30
     Davidson diagonalization with overlap
     ethr =  1.08E-04,  avg # of iterations =  1.0

     total cpu time spent up to now is      220.5 secs

     total energy              =    -210.70273656 Ry
     estimated scf accuracy    <       0.05818094 Ry

     iteration # 12     ecut=    60.00 Ry     beta= 0.30
     Davidson diagonalization with overlap
     ethr =  1.08E-04,  avg # of iterations =  9.4

     total cpu time spent up to now is      248.6 secs

     total energy              =    -210.74550398 Ry
     estimated scf accuracy    <       0.53545429 Ry

     iteration # 13     ecut=    60.00 Ry     beta= 0.30
     Davidson diagonalization with overlap
     ethr =  1.08E-04,  avg # of iterations =  1.0

     total cpu time spent up to now is      262.5 secs

     total energy              =    -210.74543961 Ry
     estimated scf accuracy    <       0.48499811 Ry

     iteration # 14     ecut=    60.00 Ry     beta= 0.30
     Davidson diagonalization with overlap
     ethr =  1.08E-04,  avg # of iterations =  1.8

     total cpu time spent up to now is      276.9 secs

     total energy              =    -210.74605347 Ry
     estimated scf accuracy    <       0.47012068 Ry

     iteration # 15     ecut=    60.00 Ry     beta= 0.30
     Davidson diagonalization with overlap
     ethr =  1.08E-04,  avg # of iterations =  1.1

     total cpu time spent up to now is      290.9 secs

     total energy              =    -210.75326152 Ry
     estimated scf accuracy    <       0.45739525 Ry

     iteration # 16     ecut=    60.00 Ry     beta= 0.30
     Davidson diagonalization with overlap
     ethr =  1.08E-04,  avg # of iterations =  1.0

     total cpu time spent up to now is      304.7 secs

     total energy              =    -210.62230069 Ry
     estimated scf accuracy    <       0.47437020 Ry

     iteration # 17     ecut=    60.00 Ry     beta= 0.30
     Davidson diagonalization with overlap
     c_bands:  1 eigenvalues not converged
     ethr =  1.08E-04,  avg # of iterations =  9.5

     total cpu time spent up to now is      332.3 secs

     total energy              =    -210.68023538 Ry
     estimated scf accuracy    <       0.08917852 Ry

     iteration # 18     ecut=    60.00 Ry     beta= 0.30
     Davidson diagonalization with overlap
     ethr =  1.08E-04,  avg # of iterations =  8.2

     total cpu time spent up to now is      353.2 secs

     total energy              =    -210.69276351 Ry
     estimated scf accuracy    <       0.01743733 Ry

     iteration # 19     ecut=    60.00 Ry     beta= 0.30
     Davidson diagonalization with overlap
     ethr =  3.63E-05,  avg # of iterations =  6.9

     total cpu time spent up to now is      371.9 secs

     total energy              =    -210.69521879 Ry
     estimated scf accuracy    <       0.00293489 Ry

     iteration # 20     ecut=    60.00 Ry     beta= 0.30
     Davidson diagonalization with overlap
     ethr =  6.11E-06,  avg # of iterations =  5.4

     total cpu time spent up to now is      389.3 secs

     total energy              =    -210.69504671 Ry
     estimated scf accuracy    <       0.00187358 Ry

     iteration # 21     ecut=    60.00 Ry     beta= 0.30
     Davidson diagonalization with overlap
     c_bands:  1 eigenvalues not converged
     ethr =  3.90E-06,  avg # of iterations =  5.9

     total cpu time spent up to now is      408.8 secs

     total energy              =    -210.69536951 Ry
     estimated scf accuracy    <       0.00031561 Ry

     iteration # 22     ecut=    60.00 Ry     beta= 0.30
     Davidson diagonalization with overlap
     c_bands:  1 eigenvalues not converged
     ethr =  6.58E-07,  avg # of iterations =  5.0

     total cpu time spent up to now is      425.8 secs

     total energy              =    -210.69536034 Ry
     estimated scf accuracy    <       0.00023792 Ry

     iteration # 23     ecut=    60.00 Ry     beta= 0.30
     Davidson diagonalization with overlap
     ethr =  4.96E-07,  avg # of iterations =  4.2

     total cpu time spent up to now is      441.9 secs

     total energy              =    -210.69536433 Ry
     estimated scf accuracy    <       0.00005178 Ry

     iteration # 24     ecut=    60.00 Ry     beta= 0.30
     Davidson diagonalization with overlap
     c_bands:  1 eigenvalues not converged
     c_bands:  1 eigenvalues not converged
     ethr =  1.08E-07,  avg # of iterations =  8.9

     total cpu time spent up to now is      464.4 secs

     total energy              =    -210.69538034 Ry
     estimated scf accuracy    <       0.00007364 Ry

     iteration # 25     ecut=    60.00 Ry     beta= 0.30
     Davidson diagonalization with overlap
     ethr =  1.08E-07,  avg # of iterations =  5.4

     total cpu time spent up to now is      481.1 secs

     total energy              =    -210.69538279 Ry
     estimated scf accuracy    <       0.00000989 Ry

     iteration # 26     ecut=    60.00 Ry     beta= 0.30
     Davidson diagonalization with overlap
     ethr =  2.06E-08,  avg # of iterations =  8.7

     total cpu time spent up to now is      502.7 secs

     total energy              =    -210.69538642 Ry
     estimated scf accuracy    <       0.00000437 Ry

     iteration # 27     ecut=    60.00 Ry     beta= 0.30
     Davidson diagonalization with overlap
     ethr =  9.09E-09,  avg # of iterations =  1.2

     total cpu time spent up to now is      516.7 secs

     total energy              =    -210.69538532 Ry
     estimated scf accuracy    <       0.00000467 Ry

     iteration # 28     ecut=    60.00 Ry     beta= 0.30
     Davidson diagonalization with overlap
     ethr =  9.09E-09,  avg # of iterations =  7.6

     total cpu time spent up to now is      534.9 secs

     total energy              =    -210.69538595 Ry
     estimated scf accuracy    <       0.00000022 Ry

     iteration # 29     ecut=    60.00 Ry     beta= 0.30
     Davidson diagonalization with overlap
     c_bands:  1 eigenvalues not converged
     ethr =  4.54E-10,  avg # of iterations =  9.2

     total cpu time spent up to now is      558.7 secs

     total energy              =    -210.69538599 Ry
     estimated scf accuracy    <       0.00000055 Ry

     iteration # 30     ecut=    60.00 Ry     beta= 0.30
     Davidson diagonalization with overlap
     ethr =  4.54E-10,  avg # of iterations =  1.6

     total cpu time spent up to now is      572.8 secs

     total energy              =    -210.69538592 Ry
     estimated scf accuracy    <       0.00000043 Ry

     iteration # 31     ecut=    60.00 Ry     beta= 0.30
     Davidson diagonalization with overlap
     ethr =  4.54E-10,  avg # of iterations =  7.9

     total cpu time spent up to now is      593.4 secs

     total energy              =    -210.69538595 Ry
     estimated scf accuracy    <       0.00000015 Ry

     iteration # 32     ecut=    60.00 Ry     beta= 0.30
     Davidson diagonalization with overlap
     ethr =  3.13E-10,  avg # of iterations =  5.2

     total cpu time spent up to now is      610.3 secs

     total energy              =    -210.69538595 Ry
     estimated scf accuracy    <       0.00000005 Ry

     iteration # 33     ecut=    60.00 Ry     beta= 0.30
     Davidson diagonalization with overlap
     ethr =  1.08E-10,  avg # of iterations =  8.2

     total cpu time spent up to now is      631.1 secs

     total energy              =    -210.69538596 Ry
     estimated scf accuracy    <       0.00000005 Ry

     iteration # 34     ecut=    60.00 Ry     beta= 0.30
     Davidson diagonalization with overlap
     ethr =  1.08E-10,  avg # of iterations =  1.1

     total cpu time spent up to now is      645.2 secs

     total energy              =    -210.69538595 Ry
     estimated scf accuracy    <       0.00000004 Ry

     iteration # 35     ecut=    60.00 Ry     beta= 0.30
     Davidson diagonalization with overlap
     ethr =  7.40E-11,  avg # of iterations =  7.7

     total cpu time spent up to now is      663.7 secs

     End of self-consistent calculation

     Number of k-points >= 100: set verbosity='high' to print the bands.

     highest occupied level (ev):     6.0739

!    total energy              =    -210.69538596 Ry
     estimated scf accuracy    <          3.3E-09 Ry

     The total energy is the sum of the following terms:
     one-electron contribution =    -167.35942626 Ry
     hartree contribution      =     106.34435731 Ry
     xc contribution           =     -51.08678120 Ry
     ewald contribution        =     -98.59353580 Ry

     convergence has been achieved in  35 iterations

     Forces acting on atoms (cartesian axes, Ry/au):

     atom    1 type  1   force =     0.26467599    0.26528383    0.22546695
     atom    2 type  1   force =    -0.61557620    0.36500395    0.33630964
     atom    3 type  1   force =    -0.50046355   -0.72537823    0.36877012
     atom    4 type  2   force =    -6.16933343   10.53129302   -0.25458862
     atom    5 type  2   force =     0.44123158   -0.26118936   -0.49605643
     atom    6 type  2   force =     0.06468371    0.55399458   -0.53712173
     atom    7 type  2   force =     0.34589029   -0.15857118    0.20340297
     atom    8 type  2   force =     0.05423578    0.38766596    0.07450533
     atom    9 type  2   force =     6.11465584  -10.95810256    0.07931177

     Total force =    17.598057     Total SCF correction =     0.000119


     Computing stress (Cartesian axis) and pressure

          total   stress  (Ry/bohr**3)                   (kbar)     P=     1826.83
   0.01056625  -0.01068223   0.00038232         1554.35    -1571.41       56.24
  -0.01068223   0.02200008   0.00068009        -1571.41     3236.32      100.05
   0.00038232   0.00068009   0.00468923           56.24      100.05      689.81


     BFGS Geometry Optimization
     Energy error            =      2.7E+01 Ry
     Gradient error          =      1.1E+01 Ry/Bohr
     Cell gradient error     =      3.2E+03 kbar

     number of scf cycles    =   1
     number of bfgs steps    =   0

     enthalpy           new  =    -210.6953859557 Ry

     new trust radius        =       0.5000000000 bohr
ibrav =      4
 celldm(1) =      9.37708143
 celldm(3) =      1.10002917
Input lattice vectors:
     1.01052506    -0.01064059     0.00038083
    -0.51447755     0.89032405     0.00039627
     0.00042139     0.00074959     1.11166841
New lattice vectors in INITIAL alat:
     1.01058115     0.00000000     0.00000000
    -0.50529057     0.87518895     0.00000000
     0.00000000     0.00000000     1.11166874
New lattice vectors in NEW alat (for information only):
     1.00000000     0.00000000     0.00000000
    -0.50000000     0.86602540     0.00000000
     0.00000000     0.00000000     1.10002917
Discrepancy in bohr =     0.010648    0.017710    0.000860
     new conv_thr            =       0.0000000100 Ry

     new unit-cell volume =    785.48499 a.u.^3 (   116.39687 Ang^3 )
     density =      2.57152 g/cm^3

CELL_PARAMETERS (alat=  9.27890000)
   1.010581149   0.000000000   0.000000000
  -0.505290575   0.875188948   0.000000000
   0.000000000   0.000000000   1.111668738

ATOMIC_POSITIONS (crystal)
Si               0.5328832166        0.5324043684        0.0008749812
Si               0.4671725915        0.0018098150        0.3346381342
Si              -0.0039473536        0.4653143254        0.6680981052
O                0.2688404491        0.4656117708        0.7839030048
O                0.5878531379        0.8545339334        0.2131839282
O                0.1458222030        0.7335758955        0.5478065640
O                0.7318691456        0.5858197496        0.2158983564
O                0.4145879818        0.1460931811        0.5501801367
O                0.2683126283        0.2148889608        0.7851987893



     Writing config-only to output data dir ./tmp_quartz_ibrav4/quartz_ibrav4.save/ :
     XML data file
     NEW-OLD atomic charge density approx. for the potential
     New effective cutoffs (rho, wfc):  474.41   59.38

     total cpu time spent up to now is      671.3 secs

     Self-consistent Calculation

     iteration #  1     ecut=    60.00 Ry     beta= 0.30
     Davidson diagonalization with overlap
     c_bands:  1 eigenvalues not converged
     c_bands:  2 eigenvalues not converged
     c_bands:  2 eigenvalues not converged
     c_bands:  1 eigenvalues not converged
     c_bands:  1 eigenvalues not converged
     c_bands:  2 eigenvalues not converged
     c_bands:  2 eigenvalues not converged
     c_bands:  2 eigenvalues not converged
     c_bands:  2 eigenvalues not converged
     c_bands:  2 eigenvalues not converged
     c_bands:  2 eigenvalues not converged
     c_bands:  2 eigenvalues not converged
     c_bands:  2 eigenvalues not converged
     c_bands:  2 eigenvalues not converged
     c_bands:  1 eigenvalues not converged
     c_bands:  1 eigenvalues not converged
     c_bands:  1 eigenvalues not converged
     c_bands:  2 eigenvalues not converged
     c_bands:  2 eigenvalues not converged
     c_bands:  2 eigenvalues not converged
     c_bands:  2 eigenvalues not converged
     c_bands:  2 eigenvalues not converged
     c_bands:  2 eigenvalues not converged
     c_bands:  2 eigenvalues not converged
     c_bands:  4 eigenvalues not converged
     c_bands:  3 eigenvalues not converged
     c_bands:  3 eigenvalues not converged
     c_bands:  2 eigenvalues not converged
     c_bands:  1 eigenvalues not converged
     c_bands:  1 eigenvalues not converged
     c_bands:  3 eigenvalues not converged
     c_bands:  3 eigenvalues not converged
     c_bands:  2 eigenvalues not converged
     c_bands:  3 eigenvalues not converged
     c_bands:  1 eigenvalues not converged
     c_bands:  1 eigenvalues not converged
     c_bands:  3 eigenvalues not converged
     c_bands:  3 eigenvalues not converged
     c_bands:  3 eigenvalues not converged
     c_bands:  3 eigenvalues not converged
     c_bands:  3 eigenvalues not converged
     c_bands:  3 eigenvalues not converged
     c_bands:  2 eigenvalues not converged
     c_bands:  3 eigenvalues not converged
     c_bands:  1 eigenvalues not converged
     c_bands:  3 eigenvalues not converged
     c_bands:  2 eigenvalues not converged
     c_bands:  2 eigenvalues not converged
     c_bands:  1 eigenvalues not converged
     c_bands:  2 eigenvalues not converged
     c_bands:  3 eigenvalues not converged
     c_bands:  3 eigenvalues not converged
     c_bands:  2 eigenvalues not converged
     c_bands:  2 eigenvalues not converged
     c_bands:  3 eigenvalues not converged
     c_bands:  3 eigenvalues not converged
     c_bands:  4 eigenvalues not converged
     c_bands:  3 eigenvalues not converged
     c_bands:  3 eigenvalues not converged
     c_bands:  3 eigenvalues not converged
     c_bands:  4 eigenvalues not converged
     c_bands:  3 eigenvalues not converged
     c_bands:  5 eigenvalues not converged
     c_bands:  3 eigenvalues not converged
     c_bands:  3 eigenvalues not converged
     c_bands:  3 eigenvalues not converged
     c_bands:  3 eigenvalues not converged
     c_bands:  3 eigenvalues not converged
     c_bands:  1 eigenvalues not converged
     c_bands:  2 eigenvalues not converged
     c_bands:  3 eigenvalues not converged
     c_bands:  2 eigenvalues not converged
     c_bands:  3 eigenvalues not converged
     c_bands:  2 eigenvalues not converged
     c_bands:  2 eigenvalues not converged
     c_bands:  2 eigenvalues not converged
     c_bands:  2 eigenvalues not converged
     c_bands:  2 eigenvalues not converged
     c_bands:  3 eigenvalues not converged
     c_bands:  3 eigenvalues not converged
     c_bands:  2 eigenvalues not converged
     c_bands:  3 eigenvalues not converged
     c_bands:  3 eigenvalues not converged
     c_bands:  3 eigenvalues not converged
     c_bands:  3 eigenvalues not converged
     c_bands:  2 eigenvalues not converged
     c_bands:  4 eigenvalues not converged
     c_bands:  2 eigenvalues not converged
     c_bands:  4 eigenvalues not converged
     c_bands:  3 eigenvalues not converged
     c_bands:  4 eigenvalues not converged
     c_bands:  1 eigenvalues not converged
     c_bands:  4 eigenvalues not converged
     c_bands:  3 eigenvalues not converged
     c_bands:  2 eigenvalues not converged
     c_bands:  3 eigenvalues not converged
     c_bands:  2 eigenvalues not converged
     c_bands:  3 eigenvalues not converged
     c_bands:  2 eigenvalues not converged
     c_bands:  5 eigenvalues not converged
     c_bands:  3 eigenvalues not converged
     c_bands:  3 eigenvalues not converged
     c_bands:  2 eigenvalues not converged
     c_bands:  4 eigenvalues not converged
     c_bands:  2 eigenvalues not converged
     c_bands:  3 eigenvalues not converged
     c_bands:  4 eigenvalues not converged
     c_bands:  2 eigenvalues not converged
     c_bands:  3 eigenvalues not converged
     c_bands:  4 eigenvalues not converged
     c_bands:  3 eigenvalues not converged
     c_bands:  2 eigenvalues not converged
     ethr =  1.00E-06,  avg # of iterations = 20.0

     total cpu time spent up to now is      766.1 secs

     total energy              =    -214.72979014 Ry
     estimated scf accuracy    <       0.48185747 Ry

     iteration #  2     ecut=    60.00 Ry     beta= 0.30
     Davidson diagonalization with overlap
     ethr =  1.00E-03,  avg # of iterations =  1.7

     total cpu time spent up to now is      780.7 secs

     total energy              =    -214.67396857 Ry
     estimated scf accuracy    <       0.15958774 Ry

     iteration #  3     ecut=    60.00 Ry     beta= 0.30
     Davidson diagonalization with overlap
     ethr =  3.32E-04,  avg # of iterations =  4.8

     total cpu time spent up to now is      798.8 secs

     total energy              =    -214.67575182 Ry
     estimated scf accuracy    <       0.04869725 Ry

     iteration #  4     ecut=    60.00 Ry     beta= 0.30
     Davidson diagonalization with overlap
     ethr =  1.01E-04,  avg # of iterations =  8.8

     total cpu time spent up to now is      821.8 secs

     total energy              =    -214.67697601 Ry
     estimated scf accuracy    <       0.07035401 Ry

     iteration #  5     ecut=    60.00 Ry     beta= 0.30
     Davidson diagonalization with overlap
     ethr =  1.01E-04,  avg # of iterations =  6.9

     total cpu time spent up to now is      841.7 secs

     total energy              =    -214.68749979 Ry
     estimated scf accuracy    <       0.00456889 Ry

     iteration #  6     ecut=    60.00 Ry     beta= 0.30
     Davidson diagonalization with overlap
     ethr =  9.52E-06,  avg # of iterations =  6.0

     total cpu time spent up to now is      860.9 secs

     total energy              =    -214.68795422 Ry
     estimated scf accuracy    <       0.00156745 Ry

     iteration #  7     ecut=    60.00 Ry     beta= 0.30
     Davidson diagonalization with overlap
     ethr =  3.27E-06,  avg # of iterations =  6.4

     total cpu time spent up to now is      879.6 secs

     total energy              =    -214.68818087 Ry
     estimated scf accuracy    <       0.00021393 Ry

     iteration #  8     ecut=    60.00 Ry     beta= 0.30
     Davidson diagonalization with overlap
     ethr =  4.46E-07,  avg # of iterations =  6.9

     total cpu time spent up to now is      901.4 secs

     total energy              =    -214.68822426 Ry
     estimated scf accuracy    <       0.00008207 Ry

     iteration #  9     ecut=    60.00 Ry     beta= 0.30
     Davidson diagonalization with overlap
     ethr =  1.71E-07,  avg # of iterations =  7.1

     total cpu time spent up to now is      921.4 secs

     total energy              =    -214.68824120 Ry
     estimated scf accuracy    <       0.00001901 Ry

     iteration # 10     ecut=    60.00 Ry     beta= 0.30
     Davidson diagonalization with overlap
     ethr =  3.96E-08,  avg # of iterations =  3.4

     total cpu time spent up to now is      937.4 secs

     total energy              =    -214.68823948 Ry
     estimated scf accuracy    <       0.00000851 Ry

     iteration # 11     ecut=    60.00 Ry     beta= 0.30
     Davidson diagonalization with overlap
     c_bands:  1 eigenvalues not converged
     ethr =  1.77E-08,  avg # of iterations =  7.8

     total cpu time spent up to now is      958.5 secs

     total energy              =    -214.68824212 Ry
     estimated scf accuracy    <       0.00000388 Ry

     iteration # 12     ecut=    60.00 Ry     beta= 0.30
     Davidson diagonalization with overlap
     ethr =  8.08E-09,  avg # of iterations =  3.5

     total cpu time spent up to now is      974.2 secs

     total energy              =    -214.68824195 Ry
     estimated scf accuracy    <       0.00000110 Ry

     iteration # 13     ecut=    60.00 Ry     beta= 0.30
     Davidson diagonalization with overlap
     ethr =  2.30E-09,  avg # of iterations =  9.5

     total cpu time spent up to now is      998.5 secs

     total energy              =    -214.68824225 Ry
     estimated scf accuracy    <       0.00000112 Ry

     iteration # 14     ecut=    60.00 Ry     beta= 0.30
     Davidson diagonalization with overlap
     ethr =  2.30E-09,  avg # of iterations =  6.6

     total cpu time spent up to now is     1017.0 secs

     total energy              =    -214.68824243 Ry
     estimated scf accuracy    <       0.00000001 Ry

     iteration # 15     ecut=    60.00 Ry     beta= 0.30
     Davidson diagonalization with overlap
     ethr =  2.80E-11,  avg # of iterations =  8.3

     total cpu time spent up to now is     1046.0 secs

     total energy              =    -214.68824244 Ry
     estimated scf accuracy    <       0.00000003 Ry

     iteration # 16     ecut=    60.00 Ry     beta= 0.30
     Davidson diagonalization with overlap
     ethr =  2.80E-11,  avg # of iterations =  7.1

     total cpu time spent up to now is     1065.7 secs

     End of self-consistent calculation

     Number of k-points >= 100: set verbosity='high' to print the bands.

     highest occupied level (ev):     5.7010

!    total energy              =    -214.68824248 Ry
     estimated scf accuracy    <          7.8E-10 Ry

     The total energy is the sum of the following terms:
     one-electron contribution =    -142.71095274 Ry
     hartree contribution      =      96.03059974 Ry
     xc contribution           =     -49.78944338 Ry
     ewald contribution        =    -118.21844610 Ry

     convergence has been achieved in  16 iterations

     Forces acting on atoms (cartesian axes, Ry/au):

     atom    1 type  1   force =     0.08717260    0.03026155   -0.04354387
     atom    2 type  1   force =    -0.44343438    0.21771670    0.21072590
     atom    3 type  1   force =    -0.44642093   -0.56897851    0.20597781
     atom    4 type  2   force =     0.03136614    0.35894837    0.08796787
     atom    5 type  2   force =     0.25674062   -0.18073990   -0.43535430
     atom    6 type  2   force =    -0.00538980    0.34548142   -0.44117983
     atom    7 type  2   force =     0.32540105   -0.19902830    0.14567777
     atom    8 type  2   force =     0.11203592    0.40240341   -0.02826728
     atom    9 type  2   force =     0.08252879   -0.40606474    0.29799592

     Total force =     1.485434     Total SCF correction =     0.000075


     Computing stress (Cartesian axis) and pressure

          total   stress  (Ry/bohr**3)                   (kbar)     P=      658.49
   0.00452112  -0.00208141  -0.00022420          665.08     -306.19      -32.98
  -0.00208141   0.00540077  -0.00003666         -306.19      794.48       -5.39
  -0.00022420  -0.00003666   0.00350701          -32.98       -5.39      515.90

     Energy error            =      4.0E+00 Ry
     Gradient error          =      5.7E-01 Ry/Bohr
     Cell gradient error     =      7.9E+02 kbar

     number of scf cycles    =   2
     number of bfgs steps    =   1

     enthalpy           old  =    -210.6953859557 Ry
     enthalpy           new  =    -214.6882424809 Ry

     CASE: enthalpy          _new < enthalpy          _old

     new trust radius        =       0.7650875863 bohr
ibrav =      4
 celldm(1) =     10.40465378
 celldm(3) =      1.07929996
Input lattice vectors:
     1.12046470    -0.04342864    -0.00636006
    -0.59784266     1.00138488     0.00169244
    -0.00707607    -0.00190698     1.21022282
New lattice vectors in INITIAL alat:
     1.12132406     0.00000000     0.00000000
    -0.56066203     0.97109512     0.00000000
     0.00000000     0.00000000     1.21024501
New lattice vectors in NEW alat (for information only):
     1.00000000     0.00000000     0.00000000
    -0.50000000     0.86602540     0.00000000
     0.00000000     0.00000000     1.07929996
Discrepancy in bohr =     0.043900    0.047987    0.007329
     new conv_thr            =       0.0000000100 Ry

     new unit-cell volume =   1052.82380 a.u.^3 (   156.01239 Ang^3 )
     density =      1.91855 g/cm^3

CELL_PARAMETERS (alat=  9.27890000)
   1.121324055   0.000000000   0.000000000
  -0.560662028   0.971095118   0.000000000
   0.000000000   0.000000000   1.210245009

ATOMIC_POSITIONS (crystal)
Si               0.5430893906        0.5351373895       -0.0043976213
Si               0.4326869981        0.0286860005        0.3549333751
Si              -0.0883293886        0.3940084706        0.6877896092
O                0.2963285173        0.4635197217        0.7938199644
O                0.6040033046        0.8320269286        0.1705275355
O                0.1663306371        0.7763418854        0.5047053019
O                0.7547710871        0.5604322802        0.2300351490
O                0.4526140932        0.1971091985        0.5470201689
O                0.2518993605        0.2127901250        0.8153485173



     Writing config-only to output data dir ./tmp_quartz_ibrav4/quartz_ibrav4.save/ :
     XML data file
     NEW-OLD atomic charge density approx. for the potential
     New effective cutoffs (rho, wfc):  398.84   50.05

     negative rho (up, down):  1.474E-03 0.000E+00

     total cpu time spent up to now is     1073.4 secs

     Self-consistent Calculation

     iteration #  1     ecut=    60.00 Ry     beta= 0.30
     Davidson diagonalization with overlap
     c_bands:  2 eigenvalues not converged
     c_bands:  4 eigenvalues not converged
     c_bands:  3 eigenvalues not converged
     c_bands:  2 eigenvalues not converged
     c_bands:  4 eigenvalues not converged
     c_bands:  3 eigenvalues not converged
     c_bands:  2 eigenvalues not converged
     c_bands:  4 eigenvalues not converged
     c_bands:  2 eigenvalues not converged
     c_bands:  3 eigenvalues not converged
     c_bands:  3 eigenvalues not converged
     c_bands:  3 eigenvalues not converged
     c_bands:  2 eigenvalues not converged
     c_bands:  4 eigenvalues not converged
     c_bands:  2 eigenvalues not converged
     c_bands:  3 eigenvalues not converged
     c_bands:  3 eigenvalues not converged
     c_bands:  2 eigenvalues not converged
     c_bands:  3 eigenvalues not converged
     c_bands:  5 eigenvalues not converged
     c_bands:  1 eigenvalues not converged
     c_bands:  4 eigenvalues not converged
     c_bands:  3 eigenvalues not converged
     c_bands:  4 eigenvalues not converged
     c_bands:  2 eigenvalues not converged
     c_bands:  2 eigenvalues not converged
     c_bands:  2 eigenvalues not converged
     c_bands:  4 eigenvalues not converged
     c_bands:  3 eigenvalues not converged
     c_bands:  3 eigenvalues not converged
     c_bands:  4 eigenvalues not converged
     c_bands:  3 eigenvalues not converged
     c_bands:  3 eigenvalues not converged
     c_bands:  3 eigenvalues not converged
     c_bands:  3 eigenvalues not converged
     c_bands:  4 eigenvalues not converged
     c_bands:  2 eigenvalues not converged
     c_bands:  2 eigenvalues not converged
     c_bands:  3 eigenvalues not converged
     c_bands:  3 eigenvalues not converged
     c_bands:  4 eigenvalues not converged
     c_bands:  3 eigenvalues not converged
     c_bands:  1 eigenvalues not converged
     c_bands:  3 eigenvalues not converged
     c_bands:  4 eigenvalues not converged
     c_bands:  4 eigenvalues not converged
     c_bands:  3 eigenvalues not converged
     c_bands:  3 eigenvalues not converged
     c_bands:  3 eigenvalues not converged
     c_bands:  5 eigenvalues not converged
     c_bands:  3 eigenvalues not converged
     c_bands:  3 eigenvalues not converged
     c_bands:  4 eigenvalues not converged
     c_bands:  3 eigenvalues not converged
     c_bands:  5 eigenvalues not converged
     c_bands:  5 eigenvalues not converged
     c_bands:  5 eigenvalues not converged
     c_bands:  5 eigenvalues not converged
     c_bands:  3 eigenvalues not converged
     c_bands:  4 eigenvalues not converged
     c_bands:  3 eigenvalues not converged
     c_bands:  3 eigenvalues not converged
     c_bands:  4 eigenvalues not converged
     c_bands:  3 eigenvalues not converged
     c_bands:  4 eigenvalues not converged
     c_bands:  2 eigenvalues not converged
     c_bands:  3 eigenvalues not converged
     c_bands:  4 eigenvalues not converged
     c_bands:  4 eigenvalues not converged
     c_bands:  4 eigenvalues not converged
     c_bands:  4 eigenvalues not converged
     c_bands:  3 eigenvalues not converged
     c_bands:  5 eigenvalues not converged
     c_bands:  2 eigenvalues not converged
     c_bands:  2 eigenvalues not converged
     c_bands:  4 eigenvalues not converged
     c_bands:  2 eigenvalues not converged
     c_bands:  4 eigenvalues not converged
     c_bands:  5 eigenvalues not converged
     c_bands:  5 eigenvalues not converged
     c_bands:  2 eigenvalues not converged
     c_bands:  4 eigenvalues not converged
     c_bands:  4 eigenvalues not converged
     c_bands:  2 eigenvalues not converged
     c_bands:  1 eigenvalues not converged
     c_bands:  3 eigenvalues not converged
     c_bands:  3 eigenvalues not converged
     c_bands:  4 eigenvalues not converged
     c_bands:  5 eigenvalues not converged
     c_bands:  4 eigenvalues not converged
     c_bands:  5 eigenvalues not converged
     c_bands:  5 eigenvalues not converged
     c_bands:  4 eigenvalues not converged
     c_bands:  3 eigenvalues not converged
     c_bands:  1 eigenvalues not converged
     c_bands:  4 eigenvalues not converged
     c_bands:  5 eigenvalues not converged
     c_bands:  4 eigenvalues not converged
     c_bands:  4 eigenvalues not converged
     c_bands:  5 eigenvalues not converged
     c_bands:  5 eigenvalues not converged
     ethr =  1.00E-06,  avg # of iterations = 20.9

     negative rho (up, down):  7.851E-06 0.000E+00

     total cpu time spent up to now is     1180.4 secs

     total energy              =    -215.18044878 Ry
     estimated scf accuracy    <       0.75590218 Ry

     iteration #  2     ecut=    60.00 Ry     beta= 0.30
     Davidson diagonalization with overlap
     ethr =  1.57E-03,  avg # of iterations =  7.9

     total cpu time spent up to now is     1200.5 secs

     total energy              =    -215.21477906 Ry
     estimated scf accuracy    <       0.59085267 Ry

     iteration #  3     ecut=    60.00 Ry     beta= 0.30
     Davidson diagonalization with overlap
     ethr =  1.23E-03,  avg # of iterations =  5.1

     total cpu time spent up to now is     1216.9 secs

     total energy              =    -215.23885533 Ry
     estimated scf accuracy    <       0.08721099 Ry

     iteration #  4     ecut=    60.00 Ry     beta= 0.30
     Davidson diagonalization with overlap
     ethr =  1.82E-04,  avg # of iterations =  8.5

     total cpu time spent up to now is     1241.9 secs

     total energy              =    -215.25156568 Ry
     estimated scf accuracy    <       0.22223744 Ry

     iteration #  5     ecut=    60.00 Ry     beta= 0.30
     Davidson diagonalization with overlap
     ethr =  1.82E-04,  avg # of iterations =  5.6

     total cpu time spent up to now is     1259.7 secs

     total energy              =    -215.25664560 Ry
     estimated scf accuracy    <       0.04092583 Ry

     iteration #  6     ecut=    60.00 Ry     beta= 0.30
     Davidson diagonalization with overlap
     ethr =  8.53E-05,  avg # of iterations =  8.1

     total cpu time spent up to now is     1279.0 secs

     total energy              =    -215.26286763 Ry
     estimated scf accuracy    <       0.01666985 Ry

     iteration #  7     ecut=    60.00 Ry     beta= 0.30
     Davidson diagonalization with overlap
     ethr =  3.47E-05,  avg # of iterations =  4.3

     total cpu time spent up to now is     1295.1 secs

     total energy              =    -215.26351599 Ry
     estimated scf accuracy    <       0.00271813 Ry

     iteration #  8     ecut=    60.00 Ry     beta= 0.30
     Davidson diagonalization with overlap
     c_bands:  1 eigenvalues not converged
     c_bands:  1 eigenvalues not converged
     c_bands:  1 eigenvalues not converged
     c_bands:  1 eigenvalues not converged
     c_bands:  1 eigenvalues not converged
     c_bands:  1 eigenvalues not converged
     c_bands:  1 eigenvalues not converged
     ethr =  5.66E-06,  avg # of iterations = 11.2

     total cpu time spent up to now is     1323.0 secs

     total energy              =    -215.26319537 Ry
     estimated scf accuracy    <       0.01070537 Ry

     iteration #  9     ecut=    60.00 Ry     beta= 0.30
     Davidson diagonalization with overlap
     c_bands:  1 eigenvalues not converged
     ethr =  5.66E-06,  avg # of iterations = 10.9

     total cpu time spent up to now is     1350.0 secs

     total energy              =    -215.26456989 Ry
     estimated scf accuracy    <       0.00360787 Ry

     iteration # 10     ecut=    60.00 Ry     beta= 0.30
     Davidson diagonalization with overlap
     ethr =  5.66E-06,  avg # of iterations =  6.5

     total cpu time spent up to now is     1367.1 secs

     total energy              =    -215.26490919 Ry
     estimated scf accuracy    <       0.00007292 Ry

     iteration # 11     ecut=    60.00 Ry     beta= 0.30
     Davidson diagonalization with overlap
     c_bands:  1 eigenvalues not converged
     c_bands:  1 eigenvalues not converged
     c_bands:  1 eigenvalues not converged
     c_bands:  1 eigenvalues not converged
     ethr =  1.52E-07,  avg # of iterations = 11.6

     total cpu time spent up to now is     1397.9 secs

     total energy              =    -215.26495014 Ry
     estimated scf accuracy    <       0.00042904 Ry

     iteration # 12     ecut=    60.00 Ry     beta= 0.30
     Davidson diagonalization with overlap
     ethr =  1.52E-07,  avg # of iterations =  8.4

     total cpu time spent up to now is     1420.4 secs

     total energy              =    -215.26498107 Ry
     estimated scf accuracy    <       0.00000900 Ry

     iteration # 13     ecut=    60.00 Ry     beta= 0.30
     Davidson diagonalization with overlap
     ethr =  1.87E-08,  avg # of iterations =  5.5

     total cpu time spent up to now is     1439.1 secs

     total energy              =    -215.26498151 Ry
     estimated scf accuracy    <       0.00001480 Ry

     iteration # 14     ecut=    60.00 Ry     beta= 0.30
     Davidson diagonalization with overlap
     ethr =  1.87E-08,  avg # of iterations =  1.0

     total cpu time spent up to now is     1452.9 secs

     total energy              =    -215.26497923 Ry
     estimated scf accuracy    <       0.00001181 Ry

     iteration # 15     ecut=    60.00 Ry     beta= 0.30
     Davidson diagonalization with overlap
     ethr =  1.87E-08,  avg # of iterations =  7.6

     total cpu time spent up to now is     1471.9 secs

     total energy              =    -215.26498102 Ry
     estimated scf accuracy    <       0.00000091 Ry

     iteration # 16     ecut=    60.00 Ry     beta= 0.30
     Davidson diagonalization with overlap
     ethr =  1.90E-09,  avg # of iterations =  5.8

     total cpu time spent up to now is     1491.0 secs

     total energy              =    -215.26498114 Ry
     estimated scf accuracy    <       0.00000156 Ry

     iteration # 17     ecut=    60.00 Ry     beta= 0.30
     Davidson diagonalization with overlap
     ethr =  1.90E-09,  avg # of iterations =  1.1

     total cpu time spent up to now is     1504.8 secs

     total energy              =    -215.26498085 Ry
     estimated scf accuracy    <       0.00000128 Ry

     iteration # 18     ecut=    60.00 Ry     beta= 0.30
     Davidson diagonalization with overlap
     c_bands:  1 eigenvalues not converged
     ethr =  1.90E-09,  avg # of iterations =  9.1

     total cpu time spent up to now is     1527.4 secs

     total energy              =    -215.26498115 Ry
     estimated scf accuracy    <       0.00000113 Ry

     iteration # 19     ecut=    60.00 Ry     beta= 0.30
     Davidson diagonalization with overlap
     ethr =  1.90E-09,  avg # of iterations =  1.0

     total cpu time spent up to now is     1541.2 secs

     total energy              =    -215.26498103 Ry
     estimated scf accuracy    <       0.00000088 Ry

     iteration # 20     ecut=    60.00 Ry     beta= 0.30
     Davidson diagonalization with overlap
     ethr =  1.82E-09,  avg # of iterations =  4.3

     total cpu time spent up to now is     1557.3 secs

     total energy              =    -215.26498109 Ry
     estimated scf accuracy    <       0.00000018 Ry

     iteration # 21     ecut=    60.00 Ry     beta= 0.30
     Davidson diagonalization with overlap
     ethr =  3.83E-10,  avg # of iterations =  5.9

     total cpu time spent up to now is     1575.0 secs

     total energy              =    -215.26498111 Ry
     estimated scf accuracy    <       0.00000004 Ry

     iteration # 22     ecut=    60.00 Ry     beta= 0.30
     Davidson diagonalization with overlap
     ethr =  7.90E-11,  avg # of iterations =  4.5

     total cpu time spent up to now is     1592.1 secs

     End of self-consistent calculation

     Number of k-points >= 100: set verbosity='high' to print the bands.

     highest occupied level (ev):     2.1180

!    total energy              =    -215.26498111 Ry
     estimated scf accuracy    <          8.9E-09 Ry

     The total energy is the sum of the following terms:
     one-electron contribution =    -151.54739006 Ry
     hartree contribution      =      96.74753161 Ry
     xc contribution           =     -47.78376849 Ry
     ewald contribution        =    -112.68135417 Ry

     convergence has been achieved in  22 iterations

     Forces acting on atoms (cartesian axes, Ry/au):

     atom    1 type  1   force =     0.09376636    0.09629729    0.16938067
     atom    2 type  1   force =     0.10442701   -0.28949197   -0.26307340
     atom    3 type  1   force =    -0.02066845    0.11598871   -0.07083791
     atom    4 type  2   force =    -0.12883865    0.28119266   -0.04470358
     atom    5 type  2   force =    -0.13468875    0.04919826   -0.00778707
     atom    6 type  2   force =    -0.01907836   -0.17957763    0.01190049
     atom    7 type  2   force =    -0.01318692   -0.12365369   -0.12348189
     atom    8 type  2   force =     0.05007244    0.32141742    0.20434043
     atom    9 type  2   force =     0.06819532   -0.27137106    0.12426224

     Total force =     0.807857     Total SCF correction =     0.000170


     Computing stress (Cartesian axis) and pressure

          total   stress  (Ry/bohr**3)                   (kbar)     P=      -11.72
  -0.00032849  -0.00041745   0.00001309          -48.32      -61.41        1.93
  -0.00041745   0.00035896   0.00022523          -61.41       52.80       33.13
   0.00001309   0.00022523  -0.00026950            1.93       33.13      -39.64

     Energy error            =      5.8E-01 Ry
     Gradient error          =      3.2E-01 Ry/Bohr
     Cell gradient error     =      6.1E+01 kbar

     number of scf cycles    =   3
     number of bfgs steps    =   2

     enthalpy           old  =    -214.6882424809 Ry
     enthalpy           new  =    -215.2649811083 Ry

     CASE: enthalpy          _new < enthalpy          _old

     new trust radius        =       0.5007845183 bohr
ibrav =      4
 celldm(1) =     10.44633096
 celldm(3) =      1.08037191
Input lattice vectors:
     1.12576889    -0.01025019    -0.00049042
    -0.57176137     0.99230620     0.00527150
    -0.00053628     0.00659861     1.21628161
New lattice vectors in INITIAL alat:
     1.12581566     0.00000000     0.00000000
    -0.56290783     0.97498497     0.00000000
     0.00000000     0.00000000     1.21629962
New lattice vectors in NEW alat (for information only):
     1.00000000     0.00000000     0.00000000
    -0.50000000     0.86602540     0.00000000
     0.00000000     0.00000000     1.08037191
Discrepancy in bohr =     0.010262    0.020154    0.006620
     new conv_thr            =       0.0000000100 Ry

     new unit-cell volume =   1066.58448 a.u.^3 (   158.05151 Ang^3 )
     density =      1.89379 g/cm^3

CELL_PARAMETERS (alat=  9.27890000)
   1.125815664   0.000000000   0.000000000
  -0.562907832   0.974984965   0.000000000
   0.000000000   0.000000000   1.216299625

ATOMIC_POSITIONS (crystal)
Si               0.5605108483        0.5472499911        0.0107762322
Si               0.4205397508       -0.0047290728        0.3320176519
Si              -0.0960048767        0.3982174836        0.6835468469
O                0.3051796284        0.4696814394        0.7917659791
O                0.5943557979        0.8350629622        0.1632402906
O                0.1553995435        0.7593514740        0.4993596553
O                0.7488312987        0.5404618864        0.2200017815
O                0.4849398614        0.2464148168        0.5663314914
O                0.2396421477        0.2083410194        0.8327420711



     Writing config-only to output data dir ./tmp_quartz_ibrav4/quartz_ibrav4.save/ :
     XML data file
     NEW-OLD atomic charge density approx. for the potential
     New effective cutoffs (rho, wfc):  394.96   49.55

     negative rho (up, down):  3.188E-06 0.000E+00

     total cpu time spent up to now is     1599.4 secs

     Self-consistent Calculation

     iteration #  1     ecut=    60.00 Ry     beta= 0.30
     Davidson diagonalization with overlap
     c_bands:  1 eigenvalues not converged
     c_bands:  1 eigenvalues not converged
     c_bands:  1 eigenvalues not converged
     c_bands:  1 eigenvalues not converged
     c_bands:  1 eigenvalues not converged
     c_bands:  1 eigenvalues not converged
     c_bands:  1 eigenvalues not converged
     c_bands:  1 eigenvalues not converged
     c_bands:  1 eigenvalues not converged
     c_bands:  1 eigenvalues not converged
     c_bands:  1 eigenvalues not converged
     c_bands:  1 eigenvalues not converged
     c_bands:  1 eigenvalues not converged
     c_bands:  1 eigenvalues not converged
     c_bands:  1 eigenvalues not converged
     c_bands:  1 eigenvalues not converged
     c_bands:  1 eigenvalues not converged
     c_bands:  1 eigenvalues not converged
     c_bands:  1 eigenvalues not converged
     c_bands:  1 eigenvalues not converged
     c_bands:  1 eigenvalues not converged
     c_bands:  3 eigenvalues not converged
     c_bands:  1 eigenvalues not converged
     c_bands:  1 eigenvalues not converged
     c_bands:  1 eigenvalues not converged
     c_bands:  1 eigenvalues not converged
     c_bands:  1 eigenvalues not converged
     c_bands:  1 eigenvalues not converged
     c_bands:  1 eigenvalues not converged
     c_bands:  1 eigenvalues not converged
     c_bands:  1 eigenvalues not converged
     c_bands:  1 eigenvalues not converged
     c_bands:  1 eigenvalues not converged
     c_bands:  1 eigenvalues not converged
     c_bands:  1 eigenvalues not converged
     c_bands:  1 eigenvalues not converged
     c_bands:  1 eigenvalues not converged
     c_bands:  1 eigenvalues not converged
     c_bands:  1 eigenvalues not converged
     c_bands:  1 eigenvalues not converged
     c_bands:  1 eigenvalues not converged
     c_bands:  1 eigenvalues not converged
     c_bands:  1 eigenvalues not converged
     c_bands:  1 eigenvalues not converged
     c_bands:  1 eigenvalues not converged
     c_bands:  1 eigenvalues not converged
     c_bands:  1 eigenvalues not converged
     c_bands:  1 eigenvalues not converged
     c_bands:  1 eigenvalues not converged
     c_bands:  1 eigenvalues not converged
     c_bands:  1 eigenvalues not converged
     c_bands:  1 eigenvalues not converged
     c_bands:  1 eigenvalues not converged
     c_bands:  1 eigenvalues not converged
     c_bands:  1 eigenvalues not converged
     c_bands:  1 eigenvalues not converged
     c_bands:  1 eigenvalues not converged
     c_bands:  1 eigenvalues not converged
     c_bands:  1 eigenvalues not converged
     c_bands:  1 eigenvalues not converged
     c_bands:  1 eigenvalues not converged
     c_bands:  1 eigenvalues not converged
     c_bands:  1 eigenvalues not converged
     c_bands:  1 eigenvalues not converged
     c_bands:  1 eigenvalues not converged
     c_bands:  1 eigenvalues not converged
     c_bands:  1 eigenvalues not converged
     c_bands:  1 eigenvalues not converged
     c_bands:  1 eigenvalues not converged
     c_bands:  1 eigenvalues not converged
     c_bands:  1 eigenvalues not converged
     c_bands:  1 eigenvalues not converged
     c_bands:  1 eigenvalues not converged
     c_bands:  1 eigenvalues not converged
     ethr =  1.00E-06,  avg # of iterations = 19.6

     total cpu time spent up to now is     1686.5 secs

     total energy              =    -215.40058444 Ry
     estimated scf accuracy    <       0.33504743 Ry

     iteration #  2     ecut=    60.00 Ry     beta= 0.30
     Davidson diagonalization with overlap
     ethr =  6.98E-04,  avg # of iterations =  7.1

     total cpu time spent up to now is     1710.1 secs

     total energy              =    -215.46088376 Ry
     estimated scf accuracy    <       0.35946093 Ry

     iteration #  3     ecut=    60.00 Ry     beta= 0.30
     Davidson diagonalization with overlap
     ethr =  6.98E-04,  avg # of iterations =  3.2

     total cpu time spent up to now is     1725.4 secs

     total energy              =    -215.46207887 Ry
     estimated scf accuracy    <       0.07342039 Ry

     iteration #  4     ecut=    60.00 Ry     beta= 0.30
     Davidson diagonalization with overlap
     ethr =  1.53E-04,  avg # of iterations =  8.7

     total cpu time spent up to now is     1749.4 secs

     total energy              =    -215.46819177 Ry
     estimated scf accuracy    <       0.09915050 Ry

     iteration #  5     ecut=    60.00 Ry     beta= 0.30
     Davidson diagonalization with overlap
     ethr =  1.53E-04,  avg # of iterations =  8.0

     total cpu time spent up to now is     1770.4 secs

     total energy              =    -215.48739738 Ry
     estimated scf accuracy    <       0.04697315 Ry

     iteration #  6     ecut=    60.00 Ry     beta= 0.30
     Davidson diagonalization with overlap
     ethr =  9.79E-05,  avg # of iterations =  1.9

     total cpu time spent up to now is     1784.8 secs

     total energy              =    -215.47783824 Ry
     estimated scf accuracy    <       0.02751708 Ry

     iteration #  7     ecut=    60.00 Ry     beta= 0.30
     Davidson diagonalization with overlap
     c_bands:  1 eigenvalues not converged
     ethr =  5.73E-05,  avg # of iterations = 11.7

     total cpu time spent up to now is     1808.9 secs

     total energy              =    -215.48534993 Ry
     estimated scf accuracy    <       0.11043671 Ry

     iteration #  8     ecut=    60.00 Ry     beta= 0.30
     Davidson diagonalization with overlap
     ethr =  5.73E-05,  avg # of iterations =  7.0

     total cpu time spent up to now is     1825.8 secs

     total energy              =    -215.48550180 Ry
     estimated scf accuracy    <       0.02103078 Ry

     iteration #  9     ecut=    60.00 Ry     beta= 0.30
     Davidson diagonalization with overlap
     ethr =  4.38E-05,  avg # of iterations =  4.1

     total cpu time spent up to now is     1842.0 secs

     total energy              =    -215.48772652 Ry
     estimated scf accuracy    <       0.00095570 Ry

     iteration # 10     ecut=    60.00 Ry     beta= 0.30
     Davidson diagonalization with overlap
     c_bands:  1 eigenvalues not converged
     c_bands:  1 eigenvalues not converged
     ethr =  1.99E-06,  avg # of iterations = 13.1

     total cpu time spent up to now is     1874.8 secs

     total energy              =    -215.48876562 Ry
     estimated scf accuracy    <       0.01098226 Ry

     iteration # 11     ecut=    60.00 Ry     beta= 0.30
     Davidson diagonalization with overlap
     c_bands:  1 eigenvalues not converged
     ethr =  1.99E-06,  avg # of iterations =  7.8

     total cpu time spent up to now is     1896.3 secs

     total energy              =    -215.48869748 Ry
     estimated scf accuracy    <       0.00177289 Ry

     iteration # 12     ecut=    60.00 Ry     beta= 0.30
     Davidson diagonalization with overlap
     ethr =  1.99E-06,  avg # of iterations =  8.7

     total cpu time spent up to now is     1918.8 secs

     total energy              =    -215.48907858 Ry
     estimated scf accuracy    <       0.00088700 Ry

     iteration # 13     ecut=    60.00 Ry     beta= 0.30
     Davidson diagonalization with overlap
     ethr =  1.85E-06,  avg # of iterations =  1.0

     total cpu time spent up to now is     1932.7 secs

     total energy              =    -215.48892012 Ry
     estimated scf accuracy    <       0.00081512 Ry

     iteration # 14     ecut=    60.00 Ry     beta= 0.30
     Davidson diagonalization with overlap
     ethr =  1.70E-06,  avg # of iterations =  8.1

     total cpu time spent up to now is     1950.6 secs

     total energy              =    -215.48902793 Ry
     estimated scf accuracy    <       0.00008581 Ry

     iteration # 15     ecut=    60.00 Ry     beta= 0.30
     Davidson diagonalization with overlap
     ethr =  1.79E-07,  avg # of iterations =  7.7

     total cpu time spent up to now is     1968.8 secs

     total energy              =    -215.48904571 Ry
     estimated scf accuracy    <       0.00000259 Ry

     iteration # 16     ecut=    60.00 Ry     beta= 0.30
     Davidson diagonalization with overlap
     c_bands:  1 eigenvalues not converged
     c_bands:  1 eigenvalues not converged
     c_bands:  1 eigenvalues not converged
     c_bands:  1 eigenvalues not converged
     c_bands:  1 eigenvalues not converged
     c_bands:  1 eigenvalues not converged
     c_bands:  1 eigenvalues not converged
     c_bands:  1 eigenvalues not converged
     c_bands:  1 eigenvalues not converged
     c_bands:  1 eigenvalues not converged
     c_bands:  1 eigenvalues not converged
     c_bands:  1 eigenvalues not converged
     c_bands:  1 eigenvalues not converged
     c_bands:  1 eigenvalues not converged
     c_bands:  1 eigenvalues not converged
     c_bands:  1 eigenvalues not converged
     c_bands:  1 eigenvalues not converged
     c_bands:  1 eigenvalues not converged
     ethr =  5.40E-09,  avg # of iterations = 15.4

     total cpu time spent up to now is     2004.9 secs

     total energy              =    -215.48903599 Ry
     estimated scf accuracy    <       0.00013067 Ry

     iteration # 17     ecut=    60.00 Ry     beta= 0.30
     Davidson diagonalization with overlap
     c_bands:  1 eigenvalues not converged
     c_bands:  1 eigenvalues not converged
     c_bands:  1 eigenvalues not converged
     c_bands:  1 eigenvalues not converged
     c_bands:  1 eigenvalues not converged
     c_bands:  1 eigenvalues not converged
     c_bands:  1 eigenvalues not converged
     c_bands:  1 eigenvalues not converged
     c_bands:  1 eigenvalues not converged
     c_bands:  1 eigenvalues not converged
     c_bands:  1 eigenvalues not converged
     ethr =  5.40E-09,  avg # of iterations = 15.3

     total cpu time spent up to now is     2041.9 secs

     total energy              =    -215.48904547 Ry
     estimated scf accuracy    <       0.00000020 Ry

     iteration # 18     ecut=    60.00 Ry     beta= 0.30
     Davidson diagonalization with overlap
     c_bands:  1 eigenvalues not converged
     ethr =  4.09E-10,  avg # of iterations =  8.3

     total cpu time spent up to now is     2068.1 secs

     total energy              =    -215.48904544 Ry
     estimated scf accuracy    <       0.00000135 Ry

     iteration # 19     ecut=    60.00 Ry     beta= 0.30
     Davidson diagonalization with overlap
     ethr =  4.09E-10,  avg # of iterations =  8.1

     total cpu time spent up to now is     2090.4 secs

     total energy              =    -215.48904553 Ry
     estimated scf accuracy    <       0.00000003 Ry

     iteration # 20     ecut=    60.00 Ry     beta= 0.30
     Davidson diagonalization with overlap
     ethr =  5.22E-11,  avg # of iterations =  4.9

     total cpu time spent up to now is     2107.8 secs

     total energy              =    -215.48904553 Ry
     estimated scf accuracy    <       0.00000003 Ry

     iteration # 21     ecut=    60.00 Ry     beta= 0.30
     Davidson diagonalization with overlap
     ethr =  5.22E-11,  avg # of iterations =  1.0

     total cpu time spent up to now is     2121.6 secs

     total energy              =    -215.48904552 Ry
     estimated scf accuracy    <       0.00000003 Ry

     iteration # 22     ecut=    60.00 Ry     beta= 0.30
     Davidson diagonalization with overlap
     ethr =  5.22E-11,  avg # of iterations =  7.9

     total cpu time spent up to now is     2139.5 secs

     End of self-consistent calculation

     Number of k-points >= 100: set verbosity='high' to print the bands.

     highest occupied level (ev):     2.0779

!    total energy              =    -215.48904553 Ry
     estimated scf accuracy    <          2.9E-09 Ry

     The total energy is the sum of the following terms:
     one-electron contribution =    -144.80186113 Ry
     hartree contribution      =      93.36191923 Ry
     xc contribution           =     -47.50448358 Ry
     ewald contribution        =    -116.54462004 Ry

     convergence has been achieved in  22 iterations

     Forces acting on atoms (cartesian axes, Ry/au):

     atom    1 type  1   force =    -0.00208200    0.04837864    0.06074687
     atom    2 type  1   force =     0.00616277   -0.04857823    0.10370497
     atom    3 type  1   force =    -0.04792284    0.08972156   -0.07659338
     atom    4 type  2   force =    -0.04639205    0.20546852    0.01718330
     atom    5 type  2   force =    -0.14130851    0.06357343    0.02084015
     atom    6 type  2   force =     0.02328801   -0.05841583   -0.01547524
     atom    7 type  2   force =     0.00738676   -0.10496580   -0.08433867
     atom    8 type  2   force =     0.14770034   -0.03456819   -0.10988220
     atom    9 type  2   force =     0.05316752   -0.16061409    0.08381421

     Total force =     0.444547     Total SCF correction =     0.000101


     Computing stress (Cartesian axis) and pressure

          total   stress  (Ry/bohr**3)                   (kbar)     P=     -111.62
  -0.00071038  -0.00032755   0.00023268         -104.50      -48.18       34.23
  -0.00032755  -0.00050441  -0.00024996          -48.18      -74.20      -36.77
   0.00023268  -0.00024996  -0.00106146           34.23      -36.77     -156.15

     Energy error            =      2.2E-01 Ry
     Gradient error          =      2.1E-01 Ry/Bohr
     Cell gradient error     =      1.6E+02 kbar

     number of scf cycles    =   4
     number of bfgs steps    =   3

     enthalpy           old  =    -215.2649811083 Ry
     enthalpy           new  =    -215.4890455257 Ry

     CASE: enthalpy          _new < enthalpy          _old

     new trust radius        =       0.3021493810 bohr
ibrav =      4
 celldm(1) =     10.22945506
 celldm(3) =      1.06893787
Input lattice vectors:
     1.10237001    -0.01040572     0.00720275
    -0.56019662     0.96043308    -0.01275069
     0.00817943    -0.01196515     1.17835356
New lattice vectors in INITIAL alat:
     1.10244265     0.00000000     0.00000000
    -0.55122132     0.95474334     0.00000000
     0.00000000     0.00000000     1.17844270
New lattice vectors in NEW alat (for information only):
     1.00000000     0.00000000     0.00000000
    -0.50000000     0.86602540     0.00000000
     0.00000000     0.00000000     1.06893787
Discrepancy in bohr =     0.012656    0.016598    0.014494
     new conv_thr            =       0.0000000100 Ry

     new unit-cell volume =    990.92456 a.u.^3 (   146.83987 Ang^3 )
     density =      2.03839 g/cm^3

CELL_PARAMETERS (alat=  9.27890000)
   1.102442646   0.000000000   0.000000000
  -0.551221323   0.954743337   0.000000000
   0.000000000   0.000000000   1.178442696

ATOMIC_POSITIONS (crystal)
Si               0.5715621242        0.5599257855        0.0244599020
Si               0.4116265449       -0.0274547595        0.3341675942
Si              -0.1000797732        0.4134126480        0.6724619122
O                0.3200866792        0.4834926874        0.7936164063
O                0.5757296347        0.8462453681        0.1618377678
O                0.1489887014        0.7426872942        0.4945276634
O                0.7391719339        0.5143660181        0.2054318346
O                0.5177925162        0.2642879786        0.5617006693
O                0.2285156387        0.2030889796        0.8515782500



     Writing config-only to output data dir ./tmp_quartz_ibrav4/quartz_ibrav4.save/ :
     XML data file
     NEW-OLD atomic charge density approx. for the potential
     New effective cutoffs (rho, wfc):  420.06   52.76

     total cpu time spent up to now is     2147.1 secs

     Self-consistent Calculation

     iteration #  1     ecut=    60.00 Ry     beta= 0.30
     Davidson diagonalization with overlap
     c_bands:  1 eigenvalues not converged
     c_bands:  1 eigenvalues not converged
     c_bands:  1 eigenvalues not converged
     c_bands:  1 eigenvalues not converged
     c_bands:  1 eigenvalues not converged
     c_bands:  1 eigenvalues not converged
     c_bands:  1 eigenvalues not converged
     c_bands:  1 eigenvalues not converged
     c_bands:  1 eigenvalues not converged
     c_bands:  1 eigenvalues not converged
     c_bands:  1 eigenvalues not converged
     c_bands:  1 eigenvalues not converged
     c_bands:  1 eigenvalues not converged
     c_bands:  1 eigenvalues not converged
     c_bands:  1 eigenvalues not converged
     c_bands:  1 eigenvalues not converged
     c_bands:  1 eigenvalues not converged
     c_bands:  1 eigenvalues not converged
     c_bands:  1 eigenvalues not converged
     c_bands:  1 eigenvalues not converged
     c_bands:  1 eigenvalues not converged
     c_bands:  1 eigenvalues not converged
     c_bands:  1 eigenvalues not converged
     c_bands:  1 eigenvalues not converged
     c_bands:  1 eigenvalues not converged
     c_bands:  1 eigenvalues not converged
     c_bands:  1 eigenvalues not converged
     c_bands:  1 eigenvalues not converged
     c_bands:  1 eigenvalues not converged
     c_bands:  1 eigenvalues not converged
     c_bands:  1 eigenvalues not converged
     c_bands:  1 eigenvalues not converged
     c_bands:  1 eigenvalues not converged
     c_bands:  1 eigenvalues not converged
     c_bands:  1 eigenvalues not converged
     c_bands:  1 eigenvalues not converged
     c_bands:  1 eigenvalues not converged
     c_bands:  1 eigenvalues not converged
     c_bands:  1 eigenvalues not converged
     c_bands:  1 eigenvalues not converged
     c_bands:  1 eigenvalues not converged
     c_bands:  1 eigenvalues not converged
     c_bands:  1 eigenvalues not converged
     c_bands:  1 eigenvalues not converged
     c_bands:  1 eigenvalues not converged
     c_bands:  2 eigenvalues not converged
     c_bands:  1 eigenvalues not converged
     c_bands:  1 eigenvalues not converged
     c_bands:  1 eigenvalues not converged
     c_bands:  1 eigenvalues not converged
     c_bands:  2 eigenvalues not converged
     c_bands:  1 eigenvalues not converged
     c_bands:  2 eigenvalues not converged
     c_bands:  1 eigenvalues not converged
     c_bands:  2 eigenvalues not converged
     c_bands:  2 eigenvalues not converged
     c_bands:  2 eigenvalues not converged
     c_bands:  1 eigenvalues not converged
     c_bands:  1 eigenvalues not converged
     c_bands:  1 eigenvalues not converged
     c_bands:  1 eigenvalues not converged
     c_bands:  1 eigenvalues not converged
     c_bands:  1 eigenvalues not converged
     c_bands:  1 eigenvalues not converged
     c_bands:  1 eigenvalues not converged
     c_bands:  1 eigenvalues not converged
     c_bands:  1 eigenvalues not converged
     c_bands:  1 eigenvalues not converged
     c_bands:  1 eigenvalues not converged
     c_bands:  1 eigenvalues not converged
     c_bands:  2 eigenvalues not converged
     c_bands:  1 eigenvalues not converged
     c_bands:  2 eigenvalues not converged
     c_bands:  1 eigenvalues not converged
     c_bands:  1 eigenvalues not converged
     c_bands:  2 eigenvalues not converged
     c_bands:  2 eigenvalues not converged
     c_bands:  1 eigenvalues not converged
     c_bands:  1 eigenvalues not converged
     c_bands:  1 eigenvalues not converged
     c_bands:  3 eigenvalues not converged
     c_bands:  1 eigenvalues not converged
     c_bands:  1 eigenvalues not converged
     c_bands:  1 eigenvalues not converged
     c_bands:  1 eigenvalues not converged
     c_bands:  1 eigenvalues not converged
     c_bands:  2 eigenvalues not converged
     c_bands:  2 eigenvalues not converged
     c_bands:  1 eigenvalues not converged
     c_bands:  1 eigenvalues not converged
     c_bands:  2 eigenvalues not converged
     c_bands:  1 eigenvalues not converged
     c_bands:  1 eigenvalues not converged
     c_bands:  1 eigenvalues not converged
     c_bands:  1 eigenvalues not converged
     c_bands:  2 eigenvalues not converged
     c_bands:  1 eigenvalues not converged
     c_bands:  2 eigenvalues not converged
     c_bands:  1 eigenvalues not converged
     c_bands:  1 eigenvalues not converged
     ethr =  1.00E-06,  avg # of iterations = 19.8

     total cpu time spent up to now is     2231.7 secs

     total energy              =    -215.71196981 Ry
     estimated scf accuracy    <       0.11102445 Ry

     iteration #  2     ecut=    60.00 Ry     beta= 0.30
     Davidson diagonalization with overlap
     ethr =  2.31E-04,  avg # of iterations =  4.3

     total cpu time spent up to now is     2248.7 secs

     total energy              =    -215.71947494 Ry
     estimated scf accuracy    <       0.02218322 Ry

     iteration #  3     ecut=    60.00 Ry     beta= 0.30
     Davidson diagonalization with overlap
     ethr =  4.62E-05,  avg # of iterations =  5.6

     total cpu time spent up to now is     2268.0 secs

     total energy              =    -215.72147854 Ry
     estimated scf accuracy    <       0.00946426 Ry

     iteration #  4     ecut=    60.00 Ry     beta= 0.30
     Davidson diagonalization with overlap
     ethr =  1.97E-05,  avg # of iterations =  3.4

     total cpu time spent up to now is     2284.1 secs

     total energy              =    -215.72142251 Ry
     estimated scf accuracy    <       0.00277427 Ry

     iteration #  5     ecut=    60.00 Ry     beta= 0.30
     Davidson diagonalization with overlap
     ethr =  5.78E-06,  avg # of iterations =  6.4

     total cpu time spent up to now is     2308.0 secs

     total energy              =    -215.72094584 Ry
     estimated scf accuracy    <       0.00383776 Ry

     iteration #  6     ecut=    60.00 Ry     beta= 0.30
     Davidson diagonalization with overlap
     ethr =  5.78E-06,  avg # of iterations =  7.9

     total cpu time spent up to now is     2332.5 secs

     total energy              =    -215.72178892 Ry
     estimated scf accuracy    <       0.00340828 Ry

     iteration #  7     ecut=    60.00 Ry     beta= 0.30
     Davidson diagonalization with overlap
     ethr =  5.78E-06,  avg # of iterations =  4.8

     total cpu time spent up to now is     2349.2 secs

     total energy              =    -215.72202435 Ry
     estimated scf accuracy    <       0.00027067 Ry

     iteration #  8     ecut=    60.00 Ry     beta= 0.30
     Davidson diagonalization with overlap
     ethr =  5.64E-07,  avg # of iterations =  6.5

     total cpu time spent up to now is     2374.7 secs

     total energy              =    -215.72217832 Ry
     estimated scf accuracy    <       0.00024663 Ry

     iteration #  9     ecut=    60.00 Ry     beta= 0.30
     Davidson diagonalization with overlap
     ethr =  5.14E-07,  avg # of iterations =  1.8

     total cpu time spent up to now is     2389.0 secs

     total energy              =    -215.72216996 Ry
     estimated scf accuracy    <       0.00011200 Ry

     iteration # 10     ecut=    60.00 Ry     beta= 0.30
     Davidson diagonalization with overlap
     ethr =  2.33E-07,  avg # of iterations =  5.9

     total cpu time spent up to now is     2406.9 secs

     total energy              =    -215.72216552 Ry
     estimated scf accuracy    <       0.00009713 Ry

     iteration # 11     ecut=    60.00 Ry     beta= 0.30
     Davidson diagonalization with overlap
     ethr =  2.02E-07,  avg # of iterations =  5.1

     total cpu time spent up to now is     2424.7 secs

     total energy              =    -215.72217950 Ry
     estimated scf accuracy    <       0.00000254 Ry

     iteration # 12     ecut=    60.00 Ry     beta= 0.30
     Davidson diagonalization with overlap
     ethr =  5.30E-09,  avg # of iterations =  8.8

     total cpu time spent up to now is     2449.9 secs

     total energy              =    -215.72218116 Ry
     estimated scf accuracy    <       0.00000210 Ry

     iteration # 13     ecut=    60.00 Ry     beta= 0.30
     Davidson diagonalization with overlap
     ethr =  4.38E-09,  avg # of iterations =  6.6

     total cpu time spent up to now is     2468.4 secs

     total energy              =    -215.72218154 Ry
     estimated scf accuracy    <       0.00000044 Ry

     iteration # 14     ecut=    60.00 Ry     beta= 0.30
     Davidson diagonalization with overlap
     ethr =  9.12E-10,  avg # of iterations =  3.3

     total cpu time spent up to now is     2484.5 secs

     total energy              =    -215.72218154 Ry
     estimated scf accuracy    <       0.00000013 Ry

     iteration # 15     ecut=    60.00 Ry     beta= 0.30
     Davidson diagonalization with overlap
     ethr =  2.80E-10,  avg # of iterations =  8.1

     total cpu time spent up to now is     2506.4 secs

     total energy              =    -215.72218158 Ry
     estimated scf accuracy    <       0.00000018 Ry

     iteration # 16     ecut=    60.00 Ry     beta= 0.30
     Davidson diagonalization with overlap
     ethr =  2.80E-10,  avg # of iterations =  6.0

     total cpu time spent up to now is     2523.9 secs

     End of self-consistent calculation

     Number of k-points >= 100: set verbosity='high' to print the bands.

     highest occupied level (ev):     2.7162

!    total energy              =    -215.72218160 Ry
     estimated scf accuracy    <          2.1E-09 Ry

     The total energy is the sum of the following terms:
     one-electron contribution =    -136.48383428 Ry
     hartree contribution      =      90.12547581 Ry
     xc contribution           =     -47.97168620 Ry
     ewald contribution        =    -121.39213693 Ry

     convergence has been achieved in  16 iterations

     Forces acting on atoms (cartesian axes, Ry/au):

     atom    1 type  1   force =    -0.17117986    0.03193124   -0.11894408
     atom    2 type  1   force =     0.00954612    0.03595437    0.09250576
     atom    3 type  1   force =    -0.05910923    0.06421530   -0.06419120
     atom    4 type  2   force =     0.00344936    0.14284671    0.03771660
     atom    5 type  2   force =    -0.09141254    0.04120470    0.02219524
     atom    6 type  2   force =    -0.00329397   -0.06091798    0.00195815
     atom    7 type  2   force =     0.12807132   -0.08827702    0.04724942
     atom    8 type  2   force =     0.16137352   -0.07311624   -0.10520588
     atom    9 type  2   force =     0.02255529   -0.09384107    0.08671598

     Total force =     0.433565     Total SCF correction =     0.000064


     Computing stress (Cartesian axis) and pressure

          total   stress  (Ry/bohr**3)                   (kbar)     P=      -74.46
  -0.00040763  -0.00031972   0.00024330          -59.96      -47.03       35.79
  -0.00031972  -0.00059942  -0.00043025          -47.03      -88.18      -63.29
   0.00024330  -0.00043025  -0.00051136           35.79      -63.29      -75.22

     Energy error            =      2.3E-01 Ry
     Gradient error          =      1.7E-01 Ry/Bohr
     Cell gradient error     =      8.8E+01 kbar

     number of scf cycles    =   5
     number of bfgs steps    =   4

     enthalpy           old  =    -215.4890455257 Ry
     enthalpy           new  =    -215.7221816020 Ry

     CASE: enthalpy          _new < enthalpy          _old

     new trust radius        =       0.4436748926 bohr
ibrav =      4
 celldm(1) =      9.94150474
 celldm(3) =      1.05782556
Input lattice vectors:
     1.07140296    -0.00321293     0.00210215
    -0.53848396     0.92344335    -0.00601736
     0.00246602    -0.00664744     1.13334253
New lattice vectors in INITIAL alat:
     1.07140984     0.00000000     0.00000000
    -0.53570492     0.92786814     0.00000000
     0.00000000     0.00000000     1.13336471
New lattice vectors in NEW alat (for information only):
     1.00000000     0.00000000     0.00000000
    -0.50000000     0.86602540     0.00000000
     0.00000000     0.00000000     1.05782556
Discrepancy in bohr =     0.003840    0.007969    0.007090
     new conv_thr            =       0.0000000100 Ry

     new unit-cell volume =    900.12134 a.u.^3 (   133.38422 Ang^3 )
     density =      2.24402 g/cm^3

CELL_PARAMETERS (alat=  9.27890000)
   1.071409837   0.000000000   0.000000000
  -0.535704919   0.927868137   0.000000000
   0.000000000   0.000000000   1.133364711

ATOMIC_POSITIONS (crystal)
Si               0.5676249460        0.5776372020        0.0277756890
Si               0.4050631082       -0.0520515235        0.3364975394
Si              -0.1064508012        0.4365159206        0.6556492666
O                0.3439877071        0.5052620537        0.7981472378
O                0.5501433314        0.8617266727        0.1614408957
O                0.1352557196        0.7149597995        0.4902562494
O                0.7383748666        0.4765468314        0.1955384779
O                0.5667653133        0.2841196766        0.5544098152
O                0.2126298090        0.1953353670        0.8800668289



     Writing config-only to output data dir ./tmp_quartz_ibrav4/quartz_ibrav4.save/ :
     XML data file
     NEW-OLD atomic charge density approx. for the potential
     New effective cutoffs (rho, wfc):  453.79   57.02

     negative rho (up, down):  1.783E-06 0.000E+00

     total cpu time spent up to now is     2531.2 secs

     Self-consistent Calculation

     iteration #  1     ecut=    60.00 Ry     beta= 0.30
     Davidson diagonalization with overlap
     c_bands:  1 eigenvalues not converged
     c_bands:  1 eigenvalues not converged
     c_bands:  2 eigenvalues not converged
     c_bands:  1 eigenvalues not converged
     c_bands:  2 eigenvalues not converged
     c_bands:  1 eigenvalues not converged
     c_bands:  1 eigenvalues not converged
     c_bands:  1 eigenvalues not converged
     c_bands:  2 eigenvalues not converged
     c_bands:  1 eigenvalues not converged
     c_bands:  1 eigenvalues not converged
     c_bands:  1 eigenvalues not converged
     c_bands:  1 eigenvalues not converged
     c_bands:  1 eigenvalues not converged
     c_bands:  1 eigenvalues not converged
     c_bands:  1 eigenvalues not converged
     c_bands:  1 eigenvalues not converged
     c_bands:  1 eigenvalues not converged
     c_bands:  1 eigenvalues not converged
     c_bands:  2 eigenvalues not converged
     c_bands:  1 eigenvalues not converged
     c_bands:  1 eigenvalues not converged
     c_bands:  1 eigenvalues not converged
     c_bands:  2 eigenvalues not converged
     c_bands:  2 eigenvalues not converged
     c_bands:  1 eigenvalues not converged
     c_bands:  1 eigenvalues not converged
     c_bands:  1 eigenvalues not converged
     c_bands:  2 eigenvalues not converged
     c_bands:  1 eigenvalues not converged
     c_bands:  2 eigenvalues not converged
     c_bands:  1 eigenvalues not converged
     c_bands:  2 eigenvalues not converged
     c_bands:  1 eigenvalues not converged
     c_bands:  2 eigenvalues not converged
     c_bands:  2 eigenvalues not converged
     c_bands:  2 eigenvalues not converged
     c_bands:  1 eigenvalues not converged
     c_bands:  1 eigenvalues not converged
     c_bands:  1 eigenvalues not converged
     c_bands:  1 eigenvalues not converged
     c_bands:  1 eigenvalues not converged
     c_bands:  2 eigenvalues not converged
     c_bands:  2 eigenvalues not converged
     c_bands:  1 eigenvalues not converged
     c_bands:  1 eigenvalues not converged
     c_bands:  1 eigenvalues not converged
     c_bands:  1 eigenvalues not converged
     c_bands:  1 eigenvalues not converged
     c_bands:  1 eigenvalues not converged
     c_bands:  2 eigenvalues not converged
     c_bands:  1 eigenvalues not converged
     c_bands:  2 eigenvalues not converged
     c_bands:  2 eigenvalues not converged
     c_bands:  1 eigenvalues not converged
     c_bands:  2 eigenvalues not converged
     c_bands:  2 eigenvalues not converged
     c_bands:  2 eigenvalues not converged
     c_bands:  1 eigenvalues not converged
     c_bands:  2 eigenvalues not converged
     c_bands:  2 eigenvalues not converged
     c_bands:  2 eigenvalues not converged
     c_bands:  1 eigenvalues not converged
     c_bands:  2 eigenvalues not converged
     c_bands:  2 eigenvalues not converged
     c_bands:  1 eigenvalues not converged
     c_bands:  2 eigenvalues not converged
     c_bands:  2 eigenvalues not converged
     c_bands:  1 eigenvalues not converged
     c_bands:  1 eigenvalues not converged
     c_bands:  2 eigenvalues not converged
     ethr =  1.00E-06,  avg # of iterations = 19.6

     total cpu time spent up to now is     2618.9 secs

     total energy              =    -215.83791726 Ry
     estimated scf accuracy    <       0.18550021 Ry

     iteration #  2     ecut=    60.00 Ry     beta= 0.30
     Davidson diagonalization with overlap
     ethr =  3.86E-04,  avg # of iterations =  2.0

     total cpu time spent up to now is     2633.8 secs

     total energy              =    -215.82921034 Ry
     estimated scf accuracy    <       0.04567104 Ry

     iteration #  3     ecut=    60.00 Ry     beta= 0.30
     Davidson diagonalization with overlap
     ethr =  9.51E-05,  avg # of iterations =  5.8

     total cpu time spent up to now is     2654.2 secs

     total energy              =    -215.83818922 Ry
     estimated scf accuracy    <       0.01477183 Ry

     iteration #  4     ecut=    60.00 Ry     beta= 0.30
     Davidson diagonalization with overlap
     ethr =  3.08E-05,  avg # of iterations =  5.0

     total cpu time spent up to now is     2671.1 secs

     total energy              =    -215.83948488 Ry
     estimated scf accuracy    <       0.00288393 Ry

     iteration #  5     ecut=    60.00 Ry     beta= 0.30
     Davidson diagonalization with overlap
     ethr =  6.01E-06,  avg # of iterations =  4.8

     total cpu time spent up to now is     2691.3 secs

     total energy              =    -215.83981118 Ry
     estimated scf accuracy    <       0.00090236 Ry

     iteration #  6     ecut=    60.00 Ry     beta= 0.30
     Davidson diagonalization with overlap
     ethr =  1.88E-06,  avg # of iterations =  5.9

     total cpu time spent up to now is     2712.9 secs

     total energy              =    -215.83999370 Ry
     estimated scf accuracy    <       0.00038635 Ry

     iteration #  7     ecut=    60.00 Ry     beta= 0.30
     Davidson diagonalization with overlap
     ethr =  8.05E-07,  avg # of iterations =  3.2

     total cpu time spent up to now is     2728.5 secs

     total energy              =    -215.83999428 Ry
     estimated scf accuracy    <       0.00007477 Ry

     iteration #  8     ecut=    60.00 Ry     beta= 0.30
     Davidson diagonalization with overlap
     ethr =  1.56E-07,  avg # of iterations =  6.7

     total cpu time spent up to now is     2753.8 secs

     total energy              =    -215.84000600 Ry
     estimated scf accuracy    <       0.00010504 Ry

     iteration #  9     ecut=    60.00 Ry     beta= 0.30
     Davidson diagonalization with overlap
     ethr =  1.56E-07,  avg # of iterations =  6.2

     total cpu time spent up to now is     2775.3 secs

     total energy              =    -215.84003077 Ry
     estimated scf accuracy    <       0.00000858 Ry

     iteration # 10     ecut=    60.00 Ry     beta= 0.30
     Davidson diagonalization with overlap
     ethr =  1.79E-08,  avg # of iterations =  4.5

     total cpu time spent up to now is     2793.3 secs

     total energy              =    -215.84003235 Ry
     estimated scf accuracy    <       0.00000076 Ry

     iteration # 11     ecut=    60.00 Ry     beta= 0.30
     Davidson diagonalization with overlap
     ethr =  1.59E-09,  avg # of iterations =  4.7

     total cpu time spent up to now is     2813.3 secs

     total energy              =    -215.84003254 Ry
     estimated scf accuracy    <       0.00000021 Ry

     iteration # 12     ecut=    60.00 Ry     beta= 0.30
     Davidson diagonalization with overlap
     ethr =  4.37E-10,  avg # of iterations =  5.2

     total cpu time spent up to now is     2833.2 secs

     total energy              =    -215.84003262 Ry
     estimated scf accuracy    <       0.00000002 Ry

     iteration # 13     ecut=    60.00 Ry     beta= 0.30
     Davidson diagonalization with overlap
     ethr =  4.71E-11,  avg # of iterations =  5.5

     total cpu time spent up to now is     2856.1 secs

     total energy              =    -215.84003264 Ry
     estimated scf accuracy    <       0.00000002 Ry

     iteration # 14     ecut=    60.00 Ry     beta= 0.30
     Davidson diagonalization with overlap
     ethr =  3.83E-11,  avg # of iterations =  4.6

     total cpu time spent up to now is     2874.6 secs

     End of self-consistent calculation

     Number of k-points >= 100: set verbosity='high' to print the bands.

     highest occupied level (ev):     3.9646

!    total energy              =    -215.84003266 Ry
     estimated scf accuracy    <          1.9E-09 Ry

     The total energy is the sum of the following terms:
     one-electron contribution =    -127.19250059 Ry
     hartree contribution      =      86.50300588 Ry
     xc contribution           =     -48.55765797 Ry
     ewald contribution        =    -126.59287997 Ry

     convergence has been achieved in  14 iterations

     Forces acting on atoms (cartesian axes, Ry/au):

     atom    1 type  1   force =     0.00314726   -0.04054561    0.00363873
     atom    2 type  1   force =    -0.20700780    0.22439692    0.25118306
     atom    3 type  1   force =     0.02080766    0.02398813    0.06132699
     atom    4 type  2   force =    -0.01491019    0.03540647   -0.00760275
     atom    5 type  2   force =     0.19616047   -0.09371945   -0.18415777
     atom    6 type  2   force =     0.00553007    0.01873217   -0.01915567
     atom    7 type  2   force =    -0.01306378    0.00244656   -0.07329449
     atom    8 type  2   force =     0.00425064   -0.17180814   -0.08336185
     atom    9 type  2   force =     0.00508567    0.00110295    0.05142374

     Total force =     0.539351     Total SCF correction =     0.000069


     Computing stress (Cartesian axis) and pressure

          total   stress  (Ry/bohr**3)                   (kbar)     P=       37.70
   0.00057408  -0.00011661  -0.00037660           84.45      -17.15      -55.40
  -0.00011661  -0.00047877  -0.00022965          -17.15      -70.43      -33.78
  -0.00037660  -0.00022965   0.00067359          -55.40      -33.78       99.09

     Energy error            =      1.2E-01 Ry
     Gradient error          =      2.5E-01 Ry/Bohr
     Cell gradient error     =      9.9E+01 kbar

     number of scf cycles    =   6
     number of bfgs steps    =   5

     enthalpy           old  =    -215.7221816020 Ry
     enthalpy           new  =    -215.8400326567 Ry

     CASE: enthalpy          _new < enthalpy          _old

     new trust radius        =       0.2287667318 bohr
ibrav =      4
 celldm(1) =      9.99471146
 celldm(3) =      1.06299042
Input lattice vectors:
     1.07712402    -0.00257381    -0.00603391
    -0.54079099     0.92012067     0.00046999
    -0.00699040    -0.00344609     1.14496723
New lattice vectors in INITIAL alat:
     1.07714400     0.00000000     0.00000000
    -0.53857200     0.93283407     0.00000000
     0.00000000     0.00000000     1.14499376
New lattice vectors in NEW alat (for information only):
     1.00000000     0.00000000     0.00000000
    -0.50000000     0.86602540     0.00000000
     0.00000000     0.00000000     1.06299042
Discrepancy in bohr =     0.006560    0.012914    0.007794
     new conv_thr            =       0.0000000100 Ry

     new unit-cell volume =    919.11693 a.u.^3 (   136.19908 Ang^3 )
     density =      2.19764 g/cm^3

CELL_PARAMETERS (alat=  9.27890000)
   1.077144000   0.000000000   0.000000000
  -0.538572000   0.932834068   0.000000000
   0.000000000   0.000000000   1.144993758

ATOMIC_POSITIONS (crystal)
Si               0.5641384928        0.5748090097        0.0270750356
Si               0.4009604901       -0.0357438896        0.3491750671
Si              -0.1001942552        0.4425822721        0.6582793048
O                0.3439165861        0.5075109414        0.7971963510
O                0.5595668509        0.8547557464        0.1512769934
O                0.1337589890        0.7124292948        0.4912394771
O                0.7378496167        0.4766217915        0.1909982989
O                0.5604432028        0.2703480139        0.5511631209
O                0.2129540268        0.1967388198        0.8833783511



     Writing config-only to output data dir ./tmp_quartz_ibrav4/quartz_ibrav4.save/ :
     XML data file
     NEW-OLD atomic charge density approx. for the potential
     New effective cutoffs (rho, wfc):  444.78   55.88

     total cpu time spent up to now is     2882.1 secs

     Self-consistent Calculation

     iteration #  1     ecut=    60.00 Ry     beta= 0.30
     Davidson diagonalization with overlap
     c_bands:  1 eigenvalues not converged
     ethr =  1.00E-06,  avg # of iterations = 14.1

     total cpu time spent up to now is     2949.9 secs

     total energy              =    -215.92840419 Ry
     estimated scf accuracy    <       0.03650274 Ry

     iteration #  2     ecut=    60.00 Ry     beta= 0.30
     Davidson diagonalization with overlap
     ethr =  7.60E-05,  avg # of iterations =  2.0

     total cpu time spent up to now is     2965.0 secs

     total energy              =    -215.92512554 Ry
     estimated scf accuracy    <       0.00982848 Ry

     iteration #  3     ecut=    60.00 Ry     beta= 0.30
     Davidson diagonalization with overlap
     ethr =  2.05E-05,  avg # of iterations =  2.3

     total cpu time spent up to now is     2983.6 secs

     total energy              =    -215.92690639 Ry
     estimated scf accuracy    <       0.00082235 Ry

     iteration #  4     ecut=    60.00 Ry     beta= 0.30
     Davidson diagonalization with overlap
     ethr =  1.71E-06,  avg # of iterations =  5.5

     total cpu time spent up to now is     3004.8 secs

     total energy              =    -215.92695685 Ry
     estimated scf accuracy    <       0.00037143 Ry

     iteration #  5     ecut=    60.00 Ry     beta= 0.30
     Davidson diagonalization with overlap
     ethr =  7.74E-07,  avg # of iterations =  5.6

     total cpu time spent up to now is     3026.7 secs

     total energy              =    -215.92705790 Ry
     estimated scf accuracy    <       0.00023018 Ry

     iteration #  6     ecut=    60.00 Ry     beta= 0.30
     Davidson diagonalization with overlap
     ethr =  4.80E-07,  avg # of iterations =  2.2

     total cpu time spent up to now is     3041.5 secs

     total energy              =    -215.92702302 Ry
     estimated scf accuracy    <       0.00007734 Ry

     iteration #  7     ecut=    60.00 Ry     beta= 0.30
     Davidson diagonalization with overlap
     ethr =  1.61E-07,  avg # of iterations =  6.5

     total cpu time spent up to now is     3066.1 secs

     total energy              =    -215.92705914 Ry
     estimated scf accuracy    <       0.00010719 Ry

     iteration #  8     ecut=    60.00 Ry     beta= 0.30
     Davidson diagonalization with overlap
     ethr =  1.61E-07,  avg # of iterations =  2.9

     total cpu time spent up to now is     3081.9 secs

     total energy              =    -215.92705286 Ry
     estimated scf accuracy    <       0.00003166 Ry

     iteration #  9     ecut=    60.00 Ry     beta= 0.30
     Davidson diagonalization with overlap
     ethr =  6.60E-08,  avg # of iterations =  5.6

     total cpu time spent up to now is     3103.6 secs

     total energy              =    -215.92706287 Ry
     estimated scf accuracy    <       0.00000546 Ry

     iteration # 10     ecut=    60.00 Ry     beta= 0.30
     Davidson diagonalization with overlap
     ethr =  1.14E-08,  avg # of iterations =  4.2

     total cpu time spent up to now is     3121.7 secs

     total energy              =    -215.92706389 Ry
     estimated scf accuracy    <       0.00000015 Ry

     iteration # 11     ecut=    60.00 Ry     beta= 0.30
     Davidson diagonalization with overlap
     ethr =  3.04E-10,  avg # of iterations =  6.9

     total cpu time spent up to now is     3150.7 secs

     total energy              =    -215.92706400 Ry
     estimated scf accuracy    <       0.00000023 Ry

     iteration # 12     ecut=    60.00 Ry     beta= 0.30
     Davidson diagonalization with overlap
     ethr =  3.04E-10,  avg # of iterations =  2.8

     total cpu time spent up to now is     3168.1 secs

     total energy              =    -215.92706400 Ry
     estimated scf accuracy    <       0.00000005 Ry

     iteration # 13     ecut=    60.00 Ry     beta= 0.30
     Davidson diagonalization with overlap
     ethr =  9.69E-11,  avg # of iterations =  7.8

     total cpu time spent up to now is     3197.6 secs

     total energy              =    -215.92706402 Ry
     estimated scf accuracy    <       0.00000024 Ry

     iteration # 14     ecut=    60.00 Ry     beta= 0.30
     Davidson diagonalization with overlap
     ethr =  9.69E-11,  avg # of iterations =  5.1

     total cpu time spent up to now is     3217.5 secs

     total energy              =    -215.92706398 Ry
     estimated scf accuracy    <       0.00000005 Ry

     iteration # 15     ecut=    60.00 Ry     beta= 0.30
     Davidson diagonalization with overlap
     ethr =  9.69E-11,  avg # of iterations =  5.0

     total cpu time spent up to now is     3238.3 secs

     End of self-consistent calculation

     Number of k-points >= 100: set verbosity='high' to print the bands.

     highest occupied level (ev):     3.5541

!    total energy              =    -215.92706396 Ry
     estimated scf accuracy    <          1.8E-09 Ry

     The total energy is the sum of the following terms:
     one-electron contribution =    -127.38679878 Ry
     hartree contribution      =      86.35635570 Ry
     xc contribution           =     -48.39380671 Ry
     ewald contribution        =    -126.50281416 Ry

     convergence has been achieved in  15 iterations

     Forces acting on atoms (cartesian axes, Ry/au):

     atom    1 type  1   force =    -0.01145279   -0.05250084    0.00725485
     atom    2 type  1   force =     0.04049192    0.11536485    0.00471652
     atom    3 type  1   force =    -0.01794796   -0.00500173    0.05331390
     atom    4 type  2   force =    -0.00362761    0.01254335   -0.01320180
     atom    5 type  2   force =    -0.05656674    0.03731330    0.06154680
     atom    6 type  2   force =     0.00320602    0.02196044   -0.02844291
     atom    7 type  2   force =    -0.00036669   -0.01418384   -0.06293867
     atom    8 type  2   force =     0.03944620   -0.13629151   -0.06542923
     atom    9 type  2   force =     0.00681765    0.02079597    0.04318054

     Total force =     0.249089     Total SCF correction =     0.000092


     Computing stress (Cartesian axis) and pressure

          total   stress  (Ry/bohr**3)                   (kbar)     P=      -25.59
  -0.00008965  -0.00004227   0.00006577          -13.19       -6.22        9.68
  -0.00004227  -0.00052750  -0.00038445           -6.22      -77.60      -56.56
   0.00006577  -0.00038445   0.00009522            9.68      -56.56       14.01

     Energy error            =      8.7E-02 Ry
     Gradient error          =      1.4E-01 Ry/Bohr
     Cell gradient error     =      7.8E+01 kbar

     number of scf cycles    =   7
     number of bfgs steps    =   6

     enthalpy           old  =    -215.8400326567 Ry
     enthalpy           new  =    -215.9270639586 Ry

     CASE: enthalpy          _new < enthalpy          _old

     new trust radius        =       0.2167521786 bohr
ibrav =      4
 celldm(1) =      9.97898750
 celldm(3) =      1.07307392
Input lattice vectors:
     1.07544737    -0.00206428     0.00035154
    -0.53951140     0.92430015    -0.00722178
     0.00044155    -0.00941920     1.15399819
New lattice vectors in INITIAL alat:
     1.07544941     0.00000000     0.00000000
    -0.53772470     0.93136651     0.00000000
     0.00000000     0.00000000     1.15403672
New lattice vectors in NEW alat (for information only):
     1.00000000     0.00000000     0.00000000
    -0.50000000     0.86602540     0.00000000
     0.00000000     0.00000000     1.07307392
Discrepancy in bohr =     0.002094    0.010261    0.009430
     new conv_thr            =       0.0000000100 Ry

     new unit-cell volume =    923.46345 a.u.^3 (   136.84316 Ang^3 )
     density =      2.18730 g/cm^3

CELL_PARAMETERS (alat=  9.27890000)
   1.075449407   0.000000000   0.000000000
  -0.537724703   0.931366507   0.000000000
   0.000000000   0.000000000   1.154036716

ATOMIC_POSITIONS (crystal)
Si               0.5582352461        0.5663580088        0.0288917791
Si               0.4129374125       -0.0144645256        0.3519773079
Si              -0.0975644789        0.4470603596        0.6649928612
O                0.3436498703        0.5116780709        0.7944613930
O                0.5589935994        0.8573798363        0.1537407015
O                0.1331906390        0.7115774757        0.4896502740
O                0.7355320141        0.4742991908        0.1807384209
O                0.5532915479        0.2469511769        0.5452821390
O                0.2151281495        0.1992124065        0.8900471233



     Writing config-only to output data dir ./tmp_quartz_ibrav4/quartz_ibrav4.save/ :
     XML data file
     NEW-OLD atomic charge density approx. for the potential
     New effective cutoffs (rho, wfc):  438.18   55.03

     total cpu time spent up to now is     3245.8 secs

     Self-consistent Calculation

     iteration #  1     ecut=    60.00 Ry     beta= 0.30
     Davidson diagonalization with overlap
     ethr =  1.00E-06,  avg # of iterations = 15.0

     total cpu time spent up to now is     3313.3 secs

     total energy              =    -215.97872312 Ry
     estimated scf accuracy    <       0.02347665 Ry

     iteration #  2     ecut=    60.00 Ry     beta= 0.30
     Davidson diagonalization with overlap
     ethr =  4.89E-05,  avg # of iterations =  2.0

     total cpu time spent up to now is     3328.5 secs

     total energy              =    -215.97805447 Ry
     estimated scf accuracy    <       0.00569708 Ry

     iteration #  3     ecut=    60.00 Ry     beta= 0.30
     Davidson diagonalization with overlap
     ethr =  1.19E-05,  avg # of iterations =  3.8

     total cpu time spent up to now is     3348.4 secs

     total energy              =    -215.97877901 Ry
     estimated scf accuracy    <       0.00134252 Ry

     iteration #  4     ecut=    60.00 Ry     beta= 0.30
     Davidson diagonalization with overlap
     ethr =  2.80E-06,  avg # of iterations =  3.9

     total cpu time spent up to now is     3369.0 secs

     total energy              =    -215.97903416 Ry
     estimated scf accuracy    <       0.00041592 Ry

     iteration #  5     ecut=    60.00 Ry     beta= 0.30
     Davidson diagonalization with overlap
     ethr =  8.66E-07,  avg # of iterations =  4.0

     total cpu time spent up to now is     3388.3 secs

     total energy              =    -215.97910724 Ry
     estimated scf accuracy    <       0.00005986 Ry

     iteration #  6     ecut=    60.00 Ry     beta= 0.30
     Davidson diagonalization with overlap
     ethr =  1.25E-07,  avg # of iterations =  4.3

     total cpu time spent up to now is     3407.3 secs

     total energy              =    -215.97910090 Ry
     estimated scf accuracy    <       0.00003807 Ry

     iteration #  7     ecut=    60.00 Ry     beta= 0.30
     Davidson diagonalization with overlap
     ethr =  7.93E-08,  avg # of iterations =  4.4

     total cpu time spent up to now is     3429.1 secs

     total energy              =    -215.97910850 Ry
     estimated scf accuracy    <       0.00001430 Ry

     iteration #  8     ecut=    60.00 Ry     beta= 0.30
     Davidson diagonalization with overlap
     ethr =  2.98E-08,  avg # of iterations =  4.5

     total cpu time spent up to now is     3450.5 secs

     total energy              =    -215.97911251 Ry
     estimated scf accuracy    <       0.00000234 Ry

     iteration #  9     ecut=    60.00 Ry     beta= 0.30
     Davidson diagonalization with overlap
     ethr =  4.88E-09,  avg # of iterations =  4.2

     total cpu time spent up to now is     3470.1 secs

     total energy              =    -215.97911307 Ry
     estimated scf accuracy    <       0.00000016 Ry

     iteration # 10     ecut=    60.00 Ry     beta= 0.30
     Davidson diagonalization with overlap
     ethr =  3.30E-10,  avg # of iterations =  6.0

     total cpu time spent up to now is     3492.7 secs

     total energy              =    -215.97911313 Ry
     estimated scf accuracy    <       0.00000016 Ry

     iteration # 11     ecut=    60.00 Ry     beta= 0.30
     Davidson diagonalization with overlap
     ethr =  3.30E-10,  avg # of iterations =  4.3

     total cpu time spent up to now is     3511.7 secs

     End of self-consistent calculation

     Number of k-points >= 100: set verbosity='high' to print the bands.

     highest occupied level (ev):     3.2879

!    total energy              =    -215.97911324 Ry
     estimated scf accuracy    <          6.4E-09 Ry

     The total energy is the sum of the following terms:
     one-electron contribution =    -127.05396591 Ry
     hartree contribution      =      86.11512534 Ry
     xc contribution           =     -48.39666994 Ry
     ewald contribution        =    -126.64360272 Ry

     convergence has been achieved in  11 iterations

     Forces acting on atoms (cartesian axes, Ry/au):

     atom    1 type  1   force =    -0.10352292   -0.01130970   -0.02863483
     atom    2 type  1   force =     0.03493154   -0.03065889   -0.03088838
     atom    3 type  1   force =    -0.01956901    0.01102707    0.02573529
     atom    4 type  2   force =     0.01041610   -0.00027243   -0.00567580
     atom    5 type  2   force =    -0.04844357    0.01906682    0.05280629
     atom    6 type  2   force =     0.00935968    0.04019313   -0.04600993
     atom    7 type  2   force =     0.05215174   -0.04073674   -0.00235005
     atom    8 type  2   force =     0.05291429   -0.03151331   -0.00707245
     atom    9 type  2   force =     0.01176215    0.04420406    0.04208987

     Total force =     0.193642     Total SCF correction =     0.000222


     Computing stress (Cartesian axis) and pressure

          total   stress  (Ry/bohr**3)                   (kbar)     P=      -35.36
  -0.00015225  -0.00014625   0.00028690          -22.40      -21.51       42.20
  -0.00014625  -0.00064405  -0.00018570          -21.51      -94.74      -27.32
   0.00028690  -0.00018570   0.00007514           42.20      -27.32       11.05

     Energy error            =      5.2E-02 Ry
     Gradient error          =      1.0E-01 Ry/Bohr
     Cell gradient error     =      9.5E+01 kbar

     number of scf cycles    =   8
     number of bfgs steps    =   7

     enthalpy           old  =    -215.9270639586 Ry
     enthalpy           new  =    -215.9791132381 Ry

     CASE: enthalpy          _new < enthalpy          _old

     new trust radius        =       0.2167202598 bohr
ibrav =      4
 celldm(1) =      9.91631867
 celldm(3) =      1.08705738
Input lattice vectors:
     1.06867898    -0.00396271     0.00442814
    -0.53777130     0.91128349    -0.00269820
     0.00496270    -0.00060380     1.16172257
New lattice vectors in INITIAL alat:
     1.06869550     0.00000000     0.00000000
    -0.53434775     0.92551745     0.00000000
     0.00000000     0.00000000     1.16173333
New lattice vectors in NEW alat (for information only):
     1.00000000     0.00000000     0.00000000
    -0.50000000     0.86602540     0.00000000
     0.00000000     0.00000000     1.08705738
Discrepancy in bohr =     0.005942    0.014886    0.004999
     new conv_thr            =       0.0000000100 Ry

     new unit-cell volume =    917.98276 a.u.^3 (   136.03101 Ang^3 )
     density =      2.20036 g/cm^3

CELL_PARAMETERS (alat=  9.27890000)
   1.068695500   0.000000000   0.000000000
  -0.534347750   0.925517452   0.000000000
   0.000000000   0.000000000   1.161733328

ATOMIC_POSITIONS (crystal)
Si               0.5435690774        0.5617066449        0.0324264304
Si               0.4161442546       -0.0069285900        0.3548090494
Si              -0.0956674830        0.4581119730        0.6713874438
O                0.3480241846        0.5219763772        0.7912927377
O                0.5541764884        0.8604387001        0.1547675114
O                0.1350250645        0.7120404789        0.4816636485
O                0.7337963256        0.4594222542        0.1666079959
O                0.5596462552        0.2297048003        0.5406938778
O                0.2186798327        0.2035793614        0.9061333051



     Writing config-only to output data dir ./tmp_quartz_ibrav4/quartz_ibrav4.save/ :
     XML data file
     NEW-OLD atomic charge density approx. for the potential
     New effective cutoffs (rho, wfc):  433.43   54.33

     total cpu time spent up to now is     3519.2 secs

     Self-consistent Calculation

     iteration #  1     ecut=    60.00 Ry     beta= 0.30
     Davidson diagonalization with overlap
     ethr =  1.00E-06,  avg # of iterations = 16.3

     total cpu time spent up to now is     3591.4 secs

     total energy              =    -216.01298178 Ry
     estimated scf accuracy    <       0.03027278 Ry

     iteration #  2     ecut=    60.00 Ry     beta= 0.30
     Davidson diagonalization with overlap
     ethr =  6.31E-05,  avg # of iterations =  2.0

     total cpu time spent up to now is     3606.5 secs

     total energy              =    -216.01237625 Ry
     estimated scf accuracy    <       0.00734040 Ry

     iteration #  3     ecut=    60.00 Ry     beta= 0.30
     Davidson diagonalization with overlap
     ethr =  1.53E-05,  avg # of iterations =  2.5

     total cpu time spent up to now is     3625.1 secs

     total energy              =    -216.01348795 Ry
     estimated scf accuracy    <       0.00129260 Ry

     iteration #  4     ecut=    60.00 Ry     beta= 0.30
     Davidson diagonalization with overlap
     ethr =  2.69E-06,  avg # of iterations =  3.0

     total cpu time spent up to now is     3643.6 secs

     total energy              =    -216.01374194 Ry
     estimated scf accuracy    <       0.00017137 Ry

     iteration #  5     ecut=    60.00 Ry     beta= 0.30
     Davidson diagonalization with overlap
     ethr =  3.57E-07,  avg # of iterations =  5.3

     total cpu time spent up to now is     3663.3 secs

     total energy              =    -216.01377067 Ry
     estimated scf accuracy    <       0.00006734 Ry

     iteration #  6     ecut=    60.00 Ry     beta= 0.30
     Davidson diagonalization with overlap
     ethr =  1.40E-07,  avg # of iterations =  2.3

     total cpu time spent up to now is     3680.7 secs

     total energy              =    -216.01377900 Ry
     estimated scf accuracy    <       0.00001494 Ry

     iteration #  7     ecut=    60.00 Ry     beta= 0.30
     Davidson diagonalization with overlap
     ethr =  3.11E-08,  avg # of iterations =  3.5

     total cpu time spent up to now is     3697.8 secs

     total energy              =    -216.01377994 Ry
     estimated scf accuracy    <       0.00000354 Ry

     iteration #  8     ecut=    60.00 Ry     beta= 0.30
     Davidson diagonalization with overlap
     ethr =  7.38E-09,  avg # of iterations =  4.2

     total cpu time spent up to now is     3720.0 secs

     total energy              =    -216.01378107 Ry
     estimated scf accuracy    <       0.00000123 Ry

     iteration #  9     ecut=    60.00 Ry     beta= 0.30
     Davidson diagonalization with overlap
     ethr =  2.57E-09,  avg # of iterations =  4.8

     total cpu time spent up to now is     3740.7 secs

     total energy              =    -216.01378148 Ry
     estimated scf accuracy    <       0.00000019 Ry

     iteration # 10     ecut=    60.00 Ry     beta= 0.30
     Davidson diagonalization with overlap
     ethr =  3.89E-10,  avg # of iterations =  4.1

     total cpu time spent up to now is     3761.2 secs

     total energy              =    -216.01378157 Ry
     estimated scf accuracy    <       0.00000004 Ry

     iteration # 11     ecut=    60.00 Ry     beta= 0.30
     Davidson diagonalization with overlap
     ethr =  8.56E-11,  avg # of iterations =  3.6

     total cpu time spent up to now is     3777.8 secs

     total energy              =    -216.01378157 Ry
     estimated scf accuracy    <       0.00000001 Ry

     iteration # 12     ecut=    60.00 Ry     beta= 0.30
     Davidson diagonalization with overlap
     ethr =  2.33E-11,  avg # of iterations =  4.1

     total cpu time spent up to now is     3799.8 secs

     End of self-consistent calculation

     Number of k-points >= 100: set verbosity='high' to print the bands.

     highest occupied level (ev):     3.3341

!    total energy              =    -216.01378161 Ry
     estimated scf accuracy    <          3.2E-09 Ry

     The total energy is the sum of the following terms:
     one-electron contribution =    -125.87186579 Ry
     hartree contribution      =      85.54837773 Ry
     xc contribution           =     -48.45832036 Ry
     ewald contribution        =    -127.23197320 Ry

     convergence has been achieved in  12 iterations

     Forces acting on atoms (cartesian axes, Ry/au):

     atom    1 type  1   force =    -0.06068630   -0.02780545    0.00903121
     atom    2 type  1   force =     0.03813526   -0.12186091   -0.13100497
     atom    3 type  1   force =    -0.01179019    0.02018311    0.01073421
     atom    4 type  2   force =     0.00981334   -0.03097151   -0.01289563
     atom    5 type  2   force =    -0.02742656   -0.00251327    0.04015490
     atom    6 type  2   force =    -0.01309453    0.01565314   -0.02920621
     atom    7 type  2   force =     0.00519864   -0.02285001   -0.00817604
     atom    8 type  2   force =     0.05535329    0.08970408    0.09687134
     atom    9 type  2   force =     0.00449705    0.08046083    0.02449119

     Total force =     0.267830     Total SCF correction =     0.000130


     Computing stress (Cartesian axis) and pressure

          total   stress  (Ry/bohr**3)                   (kbar)     P=      -22.51
  -0.00015800  -0.00005977   0.00028512          -23.24       -8.79       41.94
  -0.00005977  -0.00057042   0.00015607           -8.79      -83.91       22.96
   0.00028512   0.00015607   0.00026938           41.94       22.96       39.63

     Energy error            =      3.5E-02 Ry
     Gradient error          =      1.3E-01 Ry/Bohr
     Cell gradient error     =      8.4E+01 kbar

     number of scf cycles    =   9
     number of bfgs steps    =   8

     enthalpy           old  =    -215.9791132381 Ry
     enthalpy           new  =    -216.0137816126 Ry

     CASE: enthalpy          _new < enthalpy          _old

     new trust radius        =       0.2739668457 bohr
ibrav =      4
 celldm(1) =      9.83492291
 celldm(3) =      1.11189710
Input lattice vectors:
     1.05992053    -0.00069138     0.00235381
    -0.53055902     0.90573668    -0.00015444
     0.00252131     0.00119183     1.17852242
New lattice vectors in INITIAL alat:
     1.05992336     0.00000000     0.00000000
    -0.52996168     0.91792056     0.00000000
     0.00000000     0.00000000     1.17852572
New lattice vectors in NEW alat (for information only):
     1.00000000     0.00000000     0.00000000
    -0.50000000     0.86602540     0.00000000
     0.00000000     0.00000000     1.11189710
Discrepancy in bohr =     0.002453    0.012199    0.002789
     new conv_thr            =       0.0000000100 Ry

     new unit-cell volume =    916.02665 a.u.^3 (   135.74115 Ang^3 )
     density =      2.20506 g/cm^3

CELL_PARAMETERS (alat=  9.27890000)
   1.059923364   0.000000000   0.000000000
  -0.529961682   0.917920560   0.000000000
   0.000000000   0.000000000   1.178525719

ATOMIC_POSITIONS (crystal)
Si               0.5233275825        0.5526519689        0.0397145509
Si               0.4136784528       -0.0108125137        0.3487392610
Si              -0.0964340762        0.4718465857        0.6790472097
O                0.3537993838        0.5363535805        0.7870594847
O                0.5462901492        0.8625139443        0.1563483125
O                0.1358027465        0.7135941996        0.4691001115
O                0.7287846516        0.4386406225        0.1479707583
O                0.5817831848        0.2232662804        0.5436446335
O                0.2263619251        0.2119973317        0.9281576779



     Writing config-only to output data dir ./tmp_quartz_ibrav4/quartz_ibrav4.save/ :
     XML data file
     NEW-OLD atomic charge density approx. for the potential
     New effective cutoffs (rho, wfc):  427.11   53.40

     negative rho (up, down):  2.244E-06 0.000E+00

     total cpu time spent up to now is     3807.2 secs

     Self-consistent Calculation

     iteration #  1     ecut=    60.00 Ry     beta= 0.30
     Davidson diagonalization with overlap
     c_bands:  1 eigenvalues not converged
     c_bands:  1 eigenvalues not converged
     c_bands:  1 eigenvalues not converged
     c_bands:  1 eigenvalues not converged
     c_bands:  1 eigenvalues not converged
     c_bands:  1 eigenvalues not converged
     c_bands:  1 eigenvalues not converged
     c_bands:  1 eigenvalues not converged
     c_bands:  1 eigenvalues not converged
     c_bands:  1 eigenvalues not converged
     c_bands:  1 eigenvalues not converged
     c_bands:  1 eigenvalues not converged
     c_bands:  1 eigenvalues not converged
     c_bands:  1 eigenvalues not converged
     c_bands:  1 eigenvalues not converged
     c_bands:  1 eigenvalues not converged
     c_bands:  1 eigenvalues not converged
     c_bands:  1 eigenvalues not converged
     c_bands:  1 eigenvalues not converged
     c_bands:  1 eigenvalues not converged
     c_bands:  1 eigenvalues not converged
     c_bands:  1 eigenvalues not converged
     c_bands:  1 eigenvalues not converged
     c_bands:  1 eigenvalues not converged
     c_bands:  1 eigenvalues not converged
     c_bands:  1 eigenvalues not converged
     c_bands:  1 eigenvalues not converged
     c_bands:  1 eigenvalues not converged
     c_bands:  1 eigenvalues not converged
     c_bands:  1 eigenvalues not converged
     c_bands:  1 eigenvalues not converged
     c_bands:  1 eigenvalues not converged
     c_bands:  1 eigenvalues not converged
     c_bands:  1 eigenvalues not converged
     c_bands:  1 eigenvalues not converged
     c_bands:  1 eigenvalues not converged
     c_bands:  1 eigenvalues not converged
     c_bands:  1 eigenvalues not converged
     c_bands:  1 eigenvalues not converged
     c_bands:  1 eigenvalues not converged
     c_bands:  1 eigenvalues not converged
     c_bands:  1 eigenvalues not converged
     c_bands:  1 eigenvalues not converged
     c_bands:  1 eigenvalues not converged
     c_bands:  1 eigenvalues not converged
     c_bands:  1 eigenvalues not converged
     c_bands:  1 eigenvalues not converged
     c_bands:  1 eigenvalues not converged
     c_bands:  1 eigenvalues not converged
     c_bands:  1 eigenvalues not converged
     c_bands:  1 eigenvalues not converged
     c_bands:  1 eigenvalues not converged
     c_bands:  1 eigenvalues not converged
     c_bands:  1 eigenvalues not converged
     c_bands:  1 eigenvalues not converged
     c_bands:  1 eigenvalues not converged
     c_bands:  1 eigenvalues not converged
     c_bands:  1 eigenvalues not converged
     c_bands:  1 eigenvalues not converged
     c_bands:  1 eigenvalues not converged
     c_bands:  1 eigenvalues not converged
     c_bands:  1 eigenvalues not converged
     c_bands:  1 eigenvalues not converged
     c_bands:  1 eigenvalues not converged
     ethr =  1.00E-06,  avg # of iterations = 19.5

     total cpu time spent up to now is     3887.2 secs

     total energy              =    -216.06325744 Ry
     estimated scf accuracy    <       0.04169417 Ry

     iteration #  2     ecut=    60.00 Ry     beta= 0.30
     Davidson diagonalization with overlap
     ethr =  8.69E-05,  avg # of iterations =  1.1

     total cpu time spent up to now is     3901.0 secs

     total energy              =    -216.05990136 Ry
     estimated scf accuracy    <       0.01308095 Ry

     iteration #  3     ecut=    60.00 Ry     beta= 0.30
     Davidson diagonalization with overlap
     ethr =  2.73E-05,  avg # of iterations =  3.9

     total cpu time spent up to now is     3920.5 secs

     total energy              =    -216.06182305 Ry
     estimated scf accuracy    <       0.00145091 Ry

     iteration #  4     ecut=    60.00 Ry     beta= 0.30
     Davidson diagonalization with overlap
     ethr =  3.02E-06,  avg # of iterations =  5.9

     total cpu time spent up to now is     3940.5 secs

     total energy              =    -216.06207378 Ry
     estimated scf accuracy    <       0.00041244 Ry

     iteration #  5     ecut=    60.00 Ry     beta= 0.30
     Davidson diagonalization with overlap
     ethr =  8.59E-07,  avg # of iterations =  3.2

     total cpu time spent up to now is     3957.0 secs

     total energy              =    -216.06210313 Ry
     estimated scf accuracy    <       0.00012058 Ry

     iteration #  6     ecut=    60.00 Ry     beta= 0.30
     Davidson diagonalization with overlap
     ethr =  2.51E-07,  avg # of iterations =  4.7

     total cpu time spent up to now is     3976.4 secs

     total energy              =    -216.06211039 Ry
     estimated scf accuracy    <       0.00004481 Ry

     iteration #  7     ecut=    60.00 Ry     beta= 0.30
     Davidson diagonalization with overlap
     ethr =  9.34E-08,  avg # of iterations =  5.5

     total cpu time spent up to now is     4000.0 secs

     total energy              =    -216.06212348 Ry
     estimated scf accuracy    <       0.00005406 Ry

     iteration #  8     ecut=    60.00 Ry     beta= 0.30
     Davidson diagonalization with overlap
     ethr =  9.34E-08,  avg # of iterations =  3.1

     total cpu time spent up to now is     4015.3 secs

     total energy              =    -216.06211858 Ry
     estimated scf accuracy    <       0.00001495 Ry

     iteration #  9     ecut=    60.00 Ry     beta= 0.30
     Davidson diagonalization with overlap
     ethr =  3.11E-08,  avg # of iterations =  6.1

     total cpu time spent up to now is     4041.0 secs

     total energy              =    -216.06212423 Ry
     estimated scf accuracy    <       0.00002655 Ry

     iteration # 10     ecut=    60.00 Ry     beta= 0.30
     Davidson diagonalization with overlap
     ethr =  3.11E-08,  avg # of iterations =  4.2

     total cpu time spent up to now is     4057.9 secs

     total energy              =    -216.06212564 Ry
     estimated scf accuracy    <       0.00000296 Ry

     iteration # 11     ecut=    60.00 Ry     beta= 0.30
     Davidson diagonalization with overlap
     ethr =  6.17E-09,  avg # of iterations =  4.7

     total cpu time spent up to now is     4078.7 secs

     total energy              =    -216.06212654 Ry
     estimated scf accuracy    <       0.00000032 Ry

     iteration # 12     ecut=    60.00 Ry     beta= 0.30
     Davidson diagonalization with overlap
     ethr =  6.64E-10,  avg # of iterations =  4.3

     total cpu time spent up to now is     4096.5 secs

     total energy              =    -216.06212652 Ry
     estimated scf accuracy    <       0.00000035 Ry

     iteration # 13     ecut=    60.00 Ry     beta= 0.30
     Davidson diagonalization with overlap
     ethr =  6.64E-10,  avg # of iterations =  3.6

     total cpu time spent up to now is     4113.8 secs

     total energy              =    -216.06212652 Ry
     estimated scf accuracy    <       0.00000005 Ry

     iteration # 14     ecut=    60.00 Ry     beta= 0.30
     Davidson diagonalization with overlap
     ethr =  1.01E-10,  avg # of iterations =  5.2

     total cpu time spent up to now is     4135.4 secs

     End of self-consistent calculation

     Number of k-points >= 100: set verbosity='high' to print the bands.

     highest occupied level (ev):     3.4886

!    total energy              =    -216.06212655 Ry
     estimated scf accuracy    <          7.7E-09 Ry

     The total energy is the sum of the following terms:
     one-electron contribution =    -124.68377701 Ry
     hartree contribution      =      84.91820056 Ry
     xc contribution           =     -48.45134370 Ry
     ewald contribution        =    -127.84520640 Ry

     convergence has been achieved in  14 iterations

     Forces acting on atoms (cartesian axes, Ry/au):

     atom    1 type  1   force =    -0.01554413   -0.03136958    0.00720567
     atom    2 type  1   force =     0.03188326   -0.00794702   -0.05623003
     atom    3 type  1   force =    -0.00132409    0.03624589   -0.01183718
     atom    4 type  2   force =     0.01241687   -0.04674780    0.00062925
     atom    5 type  2   force =     0.02713426   -0.04883238   -0.00663972
     atom    6 type  2   force =    -0.04254336   -0.02313079    0.00795344
     atom    7 type  2   force =    -0.03438289   -0.00262133    0.00617967
     atom    8 type  2   force =     0.04300302    0.04117399    0.05216901
     atom    9 type  2   force =    -0.02064294    0.08322901    0.00056991

     Total force =     0.172438     Total SCF correction =     0.000160


     Computing stress (Cartesian axis) and pressure

          total   stress  (Ry/bohr**3)                   (kbar)     P=      -29.44
  -0.00008163   0.00000394   0.00012827          -12.01        0.58       18.87
   0.00000394  -0.00066896   0.00020941            0.58      -98.41       30.80
   0.00012827   0.00020941   0.00015013           18.87       30.80       22.08

     Energy error            =      4.8E-02 Ry
     Gradient error          =      8.3E-02 Ry/Bohr
     Cell gradient error     =      9.8E+01 kbar

     number of scf cycles    =  10
     number of bfgs steps    =   9

     enthalpy           old  =    -216.0137816126 Ry
     enthalpy           new  =    -216.0621265458 Ry

     CASE: enthalpy          _new < enthalpy          _old

     new trust radius        =       0.2789187104 bohr
ibrav =      4
 celldm(1) =      9.74135332
 celldm(3) =      1.13646316
Input lattice vectors:
     1.04983301    -0.00229633     0.00279416
    -0.52690519     0.89558974     0.00361409
     0.00305192     0.00631620     1.19308300
New lattice vectors in INITIAL alat:
     1.04983924     0.00000000     0.00000000
    -0.52491962     0.90918745     0.00000000
     0.00000000     0.00000000     1.19310362
New lattice vectors in NEW alat (for information only):
     1.00000000     0.00000000     0.00000000
    -0.50000000     0.86602540     0.00000000
     0.00000000     0.00000000     1.13646316
Discrepancy in bohr =     0.003617    0.014209    0.007015
     new conv_thr            =       0.0000000083 Ry

     new unit-cell volume =    909.79570 a.u.^3 (   134.81781 Ang^3 )
     density =      2.22016 g/cm^3

CELL_PARAMETERS (alat=  9.27890000)
   1.049839239   0.000000000   0.000000000
  -0.524919620   0.909187451   0.000000000
   0.000000000   0.000000000   1.193103619

ATOMIC_POSITIONS (crystal)
Si               0.5035720752        0.5407844049        0.0466503651
Si               0.4196342544       -0.0064505334        0.3424288994
Si              -0.0940768004        0.4900432920        0.6834596243
O                0.3572882802        0.5510542724        0.7839766584
O                0.5393923465        0.8565639477        0.1560749193
O                0.1278968371        0.7095998344        0.4604264669
O                0.7190735317        0.4203849747        0.1324433843
O                0.6060036762        0.2167474094        0.5473824790
O                0.2346097991        0.2213243979        0.9469392034



     Writing config-only to output data dir ./tmp_quartz_ibrav4/quartz_ibrav4.save/ :
     XML data file
     NEW-OLD atomic charge density approx. for the potential
     New effective cutoffs (rho, wfc):  435.21   54.43

     total cpu time spent up to now is     4142.9 secs

     Self-consistent Calculation

     iteration #  1     ecut=    60.00 Ry     beta= 0.30
     Davidson diagonalization with overlap
     c_bands:  1 eigenvalues not converged
     c_bands:  2 eigenvalues not converged
     c_bands:  1 eigenvalues not converged
     c_bands:  2 eigenvalues not converged
     c_bands:  2 eigenvalues not converged
     c_bands:  2 eigenvalues not converged
     c_bands:  2 eigenvalues not converged
     c_bands:  2 eigenvalues not converged
     c_bands:  2 eigenvalues not converged
     c_bands:  2 eigenvalues not converged
     c_bands:  2 eigenvalues not converged
     c_bands:  1 eigenvalues not converged
     c_bands:  1 eigenvalues not converged
     c_bands:  1 eigenvalues not converged
     c_bands:  2 eigenvalues not converged
     c_bands:  2 eigenvalues not converged
     c_bands:  2 eigenvalues not converged
     c_bands:  1 eigenvalues not converged
     c_bands:  2 eigenvalues not converged
     c_bands:  1 eigenvalues not converged
     c_bands:  2 eigenvalues not converged
     c_bands:  1 eigenvalues not converged
     c_bands:  1 eigenvalues not converged
     c_bands:  2 eigenvalues not converged
     c_bands:  1 eigenvalues not converged
     c_bands:  2 eigenvalues not converged
     c_bands:  2 eigenvalues not converged
     c_bands:  2 eigenvalues not converged
     c_bands:  2 eigenvalues not converged
     c_bands:  2 eigenvalues not converged
     c_bands:  2 eigenvalues not converged
     c_bands:  2 eigenvalues not converged
     c_bands:  2 eigenvalues not converged
     c_bands:  2 eigenvalues not converged
     c_bands:  2 eigenvalues not converged
     c_bands:  2 eigenvalues not converged
     c_bands:  2 eigenvalues not converged
     c_bands:  2 eigenvalues not converged
     c_bands:  2 eigenvalues not converged
     c_bands:  2 eigenvalues not converged
     c_bands:  2 eigenvalues not converged
     c_bands:  2 eigenvalues not converged
     c_bands:  2 eigenvalues not converged
     c_bands:  2 eigenvalues not converged
     c_bands:  2 eigenvalues not converged
     c_bands:  2 eigenvalues not converged
     c_bands:  2 eigenvalues not converged
     c_bands:  2 eigenvalues not converged
     c_bands:  2 eigenvalues not converged
     c_bands:  2 eigenvalues not converged
     c_bands:  2 eigenvalues not converged
     c_bands:  2 eigenvalues not converged
     c_bands:  2 eigenvalues not converged
     c_bands:  2 eigenvalues not converged
     c_bands:  2 eigenvalues not converged
     c_bands:  2 eigenvalues not converged
     c_bands:  1 eigenvalues not converged
     c_bands:  2 eigenvalues not converged
     c_bands:  2 eigenvalues not converged
     c_bands:  2 eigenvalues not converged
     c_bands:  2 eigenvalues not converged
     c_bands:  1 eigenvalues not converged
     c_bands:  2 eigenvalues not converged
     c_bands:  2 eigenvalues not converged
     c_bands:  2 eigenvalues not converged
     c_bands:  2 eigenvalues not converged
     c_bands:  2 eigenvalues not converged
     c_bands:  2 eigenvalues not converged
     c_bands:  2 eigenvalues not converged
     c_bands:  2 eigenvalues not converged
     c_bands:  2 eigenvalues not converged
     c_bands:  1 eigenvalues not converged
     c_bands:  2 eigenvalues not converged
     c_bands:  2 eigenvalues not converged
     c_bands:  2 eigenvalues not converged
     c_bands:  2 eigenvalues not converged
     c_bands:  1 eigenvalues not converged
     c_bands:  1 eigenvalues not converged
     c_bands:  2 eigenvalues not converged
     c_bands:  2 eigenvalues not converged
     c_bands:  1 eigenvalues not converged
     c_bands:  1 eigenvalues not converged
     c_bands:  1 eigenvalues not converged
     c_bands:  1 eigenvalues not converged
     c_bands:  2 eigenvalues not converged
     c_bands:  2 eigenvalues not converged
     c_bands:  2 eigenvalues not converged
     c_bands:  2 eigenvalues not converged
     c_bands:  2 eigenvalues not converged
     c_bands:  1 eigenvalues not converged
     c_bands:  1 eigenvalues not converged
     c_bands:  2 eigenvalues not converged
     c_bands:  1 eigenvalues not converged
     c_bands:  2 eigenvalues not converged
     c_bands:  2 eigenvalues not converged
     c_bands:  2 eigenvalues not converged
     c_bands:  2 eigenvalues not converged
     c_bands:  2 eigenvalues not converged
     c_bands:  2 eigenvalues not converged
     c_bands:  2 eigenvalues not converged
     c_bands:  1 eigenvalues not converged
     c_bands:  2 eigenvalues not converged
     c_bands:  1 eigenvalues not converged
     c_bands:  1 eigenvalues not converged
     c_bands:  2 eigenvalues not converged
     c_bands:  2 eigenvalues not converged
     c_bands:  2 eigenvalues not converged
     c_bands:  2 eigenvalues not converged
     c_bands:  1 eigenvalues not converged
     c_bands:  2 eigenvalues not converged
     c_bands:  1 eigenvalues not converged
     ethr =  1.00E-06,  avg # of iterations = 20.0

     total cpu time spent up to now is     4225.5 secs

     total energy              =    -216.05137220 Ry
     estimated scf accuracy    <       0.14260441 Ry

     iteration #  2     ecut=    60.00 Ry     beta= 0.30
     Davidson diagonalization with overlap
     ethr =  2.97E-04,  avg # of iterations =  7.6

     total cpu time spent up to now is     4245.0 secs

     total energy              =    -216.08113608 Ry
     estimated scf accuracy    <       0.10985858 Ry

     iteration #  3     ecut=    60.00 Ry     beta= 0.30
     Davidson diagonalization with overlap
     ethr =  2.29E-04,  avg # of iterations =  1.8

     total cpu time spent up to now is     4259.4 secs

     total energy              =    -216.05989812 Ry
     estimated scf accuracy    <       0.04738514 Ry

     iteration #  4     ecut=    60.00 Ry     beta= 0.30
     Davidson diagonalization with overlap
     ethr =  9.87E-05,  avg # of iterations = 11.6

     total cpu time spent up to now is     4284.3 secs

     total energy              =    -216.08301654 Ry
     estimated scf accuracy    <       0.61262670 Ry

     iteration #  5     ecut=    60.00 Ry     beta= 0.30
     Davidson diagonalization with overlap
     ethr =  9.87E-05,  avg # of iterations =  7.7

     total cpu time spent up to now is     4301.5 secs

     total energy              =    -216.08213718 Ry
     estimated scf accuracy    <       0.16507486 Ry

     iteration #  6     ecut=    60.00 Ry     beta= 0.30
     Davidson diagonalization with overlap
     ethr =  9.87E-05,  avg # of iterations =  1.9

     total cpu time spent up to now is     4315.6 secs

     total energy              =    -216.07034096 Ry
     estimated scf accuracy    <       0.11543499 Ry

     iteration #  7     ecut=    60.00 Ry     beta= 0.30
     Davidson diagonalization with overlap
     ethr =  9.87E-05,  avg # of iterations =  7.2

     total cpu time spent up to now is     4332.4 secs

     total energy              =    -216.08505065 Ry
     estimated scf accuracy    <       0.00133359 Ry

     iteration #  8     ecut=    60.00 Ry     beta= 0.30
     Davidson diagonalization with overlap
     c_bands:  1 eigenvalues not converged
     c_bands:  1 eigenvalues not converged
     c_bands:  1 eigenvalues not converged
     c_bands:  1 eigenvalues not converged
     c_bands:  1 eigenvalues not converged
     c_bands:  1 eigenvalues not converged
     c_bands:  1 eigenvalues not converged
     c_bands:  1 eigenvalues not converged
     ethr =  2.78E-06,  avg # of iterations = 10.9

     total cpu time spent up to now is     4363.2 secs

     total energy              =    -216.08591298 Ry
     estimated scf accuracy    <       0.02571894 Ry

     iteration #  9     ecut=    60.00 Ry     beta= 0.30
     Davidson diagonalization with overlap
     c_bands:  1 eigenvalues not converged
     ethr =  2.78E-06,  avg # of iterations =  7.1

     total cpu time spent up to now is     4382.6 secs

     total energy              =    -216.08534327 Ry
     estimated scf accuracy    <       0.00881561 Ry

     iteration # 10     ecut=    60.00 Ry     beta= 0.30
     Davidson diagonalization with overlap
     ethr =  2.78E-06,  avg # of iterations =  6.5

     total cpu time spent up to now is     4400.8 secs

     total energy              =    -216.08572110 Ry
     estimated scf accuracy    <       0.00127984 Ry

     iteration # 11     ecut=    60.00 Ry     beta= 0.30
     Davidson diagonalization with overlap
     ethr =  2.67E-06,  avg # of iterations =  1.0

     total cpu time spent up to now is     4414.6 secs

     total energy              =    -216.08569403 Ry
     estimated scf accuracy    <       0.00113348 Ry

     iteration # 12     ecut=    60.00 Ry     beta= 0.30
     Davidson diagonalization with overlap
     ethr =  2.36E-06,  avg # of iterations =  1.3

     total cpu time spent up to now is     4428.5 secs

     total energy              =    -216.08555005 Ry
     estimated scf accuracy    <       0.00098302 Ry

     iteration # 13     ecut=    60.00 Ry     beta= 0.30
     Davidson diagonalization with overlap
     ethr =  2.05E-06,  avg # of iterations =  4.1

     total cpu time spent up to now is     4444.0 secs

     total energy              =    -216.08561783 Ry
     estimated scf accuracy    <       0.00004722 Ry

     iteration # 14     ecut=    60.00 Ry     beta= 0.30
     Davidson diagonalization with overlap
     c_bands:  1 eigenvalues not converged
     c_bands:  1 eigenvalues not converged
     c_bands:  1 eigenvalues not converged
     c_bands:  1 eigenvalues not converged
     c_bands:  1 eigenvalues not converged
     ethr =  9.84E-08,  avg # of iterations = 12.4

     total cpu time spent up to now is     4470.9 secs

     total energy              =    -216.08568987 Ry
     estimated scf accuracy    <       0.00020097 Ry

     iteration # 15     ecut=    60.00 Ry     beta= 0.30
     Davidson diagonalization with overlap
     ethr =  9.84E-08,  avg # of iterations =  1.3

     total cpu time spent up to now is     4484.6 secs

     total energy              =    -216.08565443 Ry
     estimated scf accuracy    <       0.00019432 Ry

     iteration # 16     ecut=    60.00 Ry     beta= 0.30
     Davidson diagonalization with overlap
     ethr =  9.84E-08,  avg # of iterations =  7.5

     total cpu time spent up to now is     4502.5 secs

     total energy              =    -216.08567344 Ry
     estimated scf accuracy    <       0.00001251 Ry

     iteration # 17     ecut=    60.00 Ry     beta= 0.30
     Davidson diagonalization with overlap
     ethr =  2.61E-08,  avg # of iterations =  5.4

     total cpu time spent up to now is     4521.1 secs

     total energy              =    -216.08567354 Ry
     estimated scf accuracy    <       0.00000806 Ry

     iteration # 18     ecut=    60.00 Ry     beta= 0.30
     Davidson diagonalization with overlap
     ethr =  1.68E-08,  avg # of iterations =  6.6

     total cpu time spent up to now is     4537.5 secs

     total energy              =    -216.08567479 Ry
     estimated scf accuracy    <       0.00000445 Ry

     iteration # 19     ecut=    60.00 Ry     beta= 0.30
     Davidson diagonalization with overlap
     ethr =  9.27E-09,  avg # of iterations =  4.5

     total cpu time spent up to now is     4553.5 secs

     total energy              =    -216.08567466 Ry
     estimated scf accuracy    <       0.00000196 Ry

     iteration # 20     ecut=    60.00 Ry     beta= 0.30
     Davidson diagonalization with overlap
     ethr =  4.08E-09,  avg # of iterations =  6.8

     total cpu time spent up to now is     4570.7 secs

     total energy              =    -216.08567525 Ry
     estimated scf accuracy    <       0.00000114 Ry

     iteration # 21     ecut=    60.00 Ry     beta= 0.30
     Davidson diagonalization with overlap
     ethr =  2.37E-09,  avg # of iterations =  2.0

     total cpu time spent up to now is     4585.3 secs

     total energy              =    -216.08567509 Ry
     estimated scf accuracy    <       0.00000139 Ry

     iteration # 22     ecut=    60.00 Ry     beta= 0.30
     Davidson diagonalization with overlap
     ethr =  2.37E-09,  avg # of iterations =  3.4

     total cpu time spent up to now is     4599.8 secs

     total energy              =    -216.08567511 Ry
     estimated scf accuracy    <       0.00000026 Ry

     iteration # 23     ecut=    60.00 Ry     beta= 0.30
     Davidson diagonalization with overlap
     ethr =  5.32E-10,  avg # of iterations =  6.9

     total cpu time spent up to now is     4617.5 secs

     total energy              =    -216.08567517 Ry
     estimated scf accuracy    <       0.00000002 Ry

     iteration # 24     ecut=    60.00 Ry     beta= 0.30
     Davidson diagonalization with overlap
     ethr =  3.85E-11,  avg # of iterations =  5.8

     total cpu time spent up to now is     4636.0 secs

     total energy              =    -216.08567517 Ry
     estimated scf accuracy    <       0.00000003 Ry

     iteration # 25     ecut=    60.00 Ry     beta= 0.30
     Davidson diagonalization with overlap
     ethr =  3.85E-11,  avg # of iterations =  6.6

     total cpu time spent up to now is     4652.4 secs

     End of self-consistent calculation

     Number of k-points >= 100: set verbosity='high' to print the bands.

     highest occupied level (ev):     3.3917

!    total energy              =    -216.08567517 Ry
     estimated scf accuracy    <          7.3E-09 Ry

     The total energy is the sum of the following terms:
     one-electron contribution =    -124.08294769 Ry
     hartree contribution      =      84.68254525 Ry
     xc contribution           =     -48.49166174 Ry
     ewald contribution        =    -128.19361099 Ry

     convergence has been achieved in  25 iterations

     Forces acting on atoms (cartesian axes, Ry/au):

     atom    1 type  1   force =     0.00335334    0.01482206   -0.02350345
     atom    2 type  1   force =    -0.00012205    0.02385814    0.00082050
     atom    3 type  1   force =     0.02042281    0.04054455   -0.02054846
     atom    4 type  2   force =    -0.00675236   -0.01479856   -0.01299702
     atom    5 type  2   force =     0.05091927   -0.06226894   -0.01665235
     atom    6 type  2   force =    -0.02870510    0.01152952    0.00596061
     atom    7 type  2   force =    -0.01485027   -0.00131038    0.03467809
     atom    8 type  2   force =     0.03229369    0.01155771    0.03075933
     atom    9 type  2   force =    -0.05655933   -0.02393410    0.00148275

     Total force =     0.139037     Total SCF correction =     0.000125


     Computing stress (Cartesian axis) and pressure

          total   stress  (Ry/bohr**3)                   (kbar)     P=      -31.44
  -0.00010619  -0.00007204   0.00010828          -15.62      -10.60       15.93
  -0.00007204  -0.00045809   0.00029172          -10.60      -67.39       42.91
   0.00010828   0.00029172  -0.00007688           15.93       42.91      -11.31

     Energy error            =      2.4E-02 Ry
     Gradient error          =      6.2E-02 Ry/Bohr
     Cell gradient error     =      6.7E+01 kbar

     number of scf cycles    =  11
     number of bfgs steps    =  10

     enthalpy           old  =    -216.0621265458 Ry
     enthalpy           new  =    -216.0856751657 Ry

     CASE: enthalpy          _new < enthalpy          _old

     new trust radius        =       0.2067480989 bohr
ibrav =      4
 celldm(1) =      9.63817409
 celldm(3) =      1.15042210
Input lattice vectors:
     1.03871102    -0.00282613     0.00309203
    -0.52180301     0.89479691     0.00425265
     0.00335062     0.00710972     1.19493999
New lattice vectors in INITIAL alat:
     1.03871947     0.00000000     0.00000000
    -0.51935974     0.89955745     0.00000000
     0.00000000     0.00000000     1.19496584
New lattice vectors in NEW alat (for information only):
     1.00000000     0.00000000     0.00000000
    -0.50000000     0.86602540     0.00000000
     0.00000000     0.00000000     1.15042210
Discrepancy in bohr =     0.004189    0.006835    0.007860
     new conv_thr            =       0.0000000062 Ry

     new unit-cell volume =    892.01498 a.u.^3 (   132.18298 Ang^3 )
     density =      2.26441 g/cm^3

CELL_PARAMETERS (alat=  9.27890000)
   1.038719470   0.000000000   0.000000000
  -0.519359735   0.899557449   0.000000000
   0.000000000   0.000000000   1.194965839

ATOMIC_POSITIONS (crystal)
Si               0.4955275520        0.5370512954        0.0484782079
Si               0.4252733577       -0.0014103220        0.3386734219
Si              -0.0877919682        0.5061813110        0.6830859821
O                0.3580442400        0.5590252723        0.7806361064
O                0.5355478443        0.8463243535        0.1553876744
O                0.1211128331        0.7087335418        0.4560674690
O                0.7113450168        0.4090260259        0.1268947311
O                0.6253577770        0.2146193566        0.5522141627
O                0.2289773473        0.2205011655        0.9583442446



     Writing config-only to output data dir ./tmp_quartz_ibrav4/quartz_ibrav4.save/ :
     XML data file
     NEW-OLD atomic charge density approx. for the potential
     New effective cutoffs (rho, wfc):  444.57   55.60

     total cpu time spent up to now is     4659.6 secs

     Self-consistent Calculation

     iteration #  1     ecut=    60.00 Ry     beta= 0.30
     Davidson diagonalization with overlap
     c_bands:  2 eigenvalues not converged
     c_bands:  2 eigenvalues not converged
     c_bands:  1 eigenvalues not converged
     c_bands:  1 eigenvalues not converged
     c_bands:  2 eigenvalues not converged
     c_bands:  2 eigenvalues not converged
     c_bands:  2 eigenvalues not converged
     c_bands:  1 eigenvalues not converged
     c_bands:  2 eigenvalues not converged
     c_bands:  2 eigenvalues not converged
     c_bands:  2 eigenvalues not converged
     c_bands:  2 eigenvalues not converged
     c_bands:  1 eigenvalues not converged
     c_bands:  2 eigenvalues not converged
     c_bands:  2 eigenvalues not converged
     c_bands:  2 eigenvalues not converged
     c_bands:  1 eigenvalues not converged
     c_bands:  2 eigenvalues not converged
     c_bands:  2 eigenvalues not converged
     c_bands:  1 eigenvalues not converged
     c_bands:  1 eigenvalues not converged
     c_bands:  1 eigenvalues not converged
     c_bands:  1 eigenvalues not converged
     c_bands:  1 eigenvalues not converged
     c_bands:  1 eigenvalues not converged
     c_bands:  2 eigenvalues not converged
     c_bands:  1 eigenvalues not converged
     c_bands:  2 eigenvalues not converged
     c_bands:  1 eigenvalues not converged
     c_bands:  2 eigenvalues not converged
     c_bands:  2 eigenvalues not converged
     c_bands:  1 eigenvalues not converged
     c_bands:  1 eigenvalues not converged
     c_bands:  2 eigenvalues not converged
     c_bands:  1 eigenvalues not converged
     c_bands:  1 eigenvalues not converged
     c_bands:  1 eigenvalues not converged
     c_bands:  1 eigenvalues not converged
     c_bands:  1 eigenvalues not converged
     c_bands:  2 eigenvalues not converged
     c_bands:  1 eigenvalues not converged
     c_bands:  2 eigenvalues not converged
     c_bands:  2 eigenvalues not converged
     c_bands:  1 eigenvalues not converged
     c_bands:  2 eigenvalues not converged
     c_bands:  1 eigenvalues not converged
     c_bands:  2 eigenvalues not converged
     c_bands:  1 eigenvalues not converged
     c_bands:  1 eigenvalues not converged
     c_bands:  1 eigenvalues not converged
     c_bands:  1 eigenvalues not converged
     c_bands:  1 eigenvalues not converged
     c_bands:  1 eigenvalues not converged
     c_bands:  1 eigenvalues not converged
     c_bands:  1 eigenvalues not converged
     c_bands:  1 eigenvalues not converged
     c_bands:  1 eigenvalues not converged
     c_bands:  1 eigenvalues not converged
     c_bands:  2 eigenvalues not converged
     c_bands:  2 eigenvalues not converged
     c_bands:  2 eigenvalues not converged
     c_bands:  2 eigenvalues not converged
     c_bands:  2 eigenvalues not converged
     c_bands:  1 eigenvalues not converged
     c_bands:  1 eigenvalues not converged
     c_bands:  2 eigenvalues not converged
     c_bands:  2 eigenvalues not converged
     c_bands:  1 eigenvalues not converged
     c_bands:  1 eigenvalues not converged
     c_bands:  1 eigenvalues not converged
     c_bands:  1 eigenvalues not converged
     c_bands:  1 eigenvalues not converged
     c_bands:  2 eigenvalues not converged
     c_bands:  1 eigenvalues not converged
     c_bands:  1 eigenvalues not converged
     c_bands:  1 eigenvalues not converged
     c_bands:  1 eigenvalues not converged
     c_bands:  2 eigenvalues not converged
     c_bands:  2 eigenvalues not converged
     c_bands:  2 eigenvalues not converged
     c_bands:  1 eigenvalues not converged
     c_bands:  1 eigenvalues not converged
     c_bands:  1 eigenvalues not converged
     c_bands:  1 eigenvalues not converged
     c_bands:  1 eigenvalues not converged
     c_bands:  1 eigenvalues not converged
     c_bands:  1 eigenvalues not converged
     c_bands:  1 eigenvalues not converged
     c_bands:  2 eigenvalues not converged
     c_bands:  2 eigenvalues not converged
     c_bands:  1 eigenvalues not converged
     c_bands:  1 eigenvalues not converged
     c_bands:  1 eigenvalues not converged
     c_bands:  1 eigenvalues not converged
     c_bands:  1 eigenvalues not converged
     c_bands:  1 eigenvalues not converged
     c_bands:  1 eigenvalues not converged
     c_bands:  1 eigenvalues not converged
     c_bands:  1 eigenvalues not converged
     c_bands:  1 eigenvalues not converged
     c_bands:  1 eigenvalues not converged
     c_bands:  1 eigenvalues not converged
     c_bands:  2 eigenvalues not converged
     c_bands:  1 eigenvalues not converged
     c_bands:  1 eigenvalues not converged
     c_bands:  1 eigenvalues not converged
     ethr =  1.00E-06,  avg # of iterations = 19.8

     total cpu time spent up to now is     4732.3 secs

     total energy              =    -216.08015468 Ry
     estimated scf accuracy    <       0.10777630 Ry

     iteration #  2     ecut=    60.00 Ry     beta= 0.30
     Davidson diagonalization with overlap
     ethr =  2.25E-04,  avg # of iterations =  7.8

     total cpu time spent up to now is     4752.5 secs

     total energy              =    -216.09913052 Ry
     estimated scf accuracy    <       0.14822364 Ry

     iteration #  3     ecut=    60.00 Ry     beta= 0.30
     Davidson diagonalization with overlap
     ethr =  2.25E-04,  avg # of iterations =  2.8

     total cpu time spent up to now is     4767.4 secs

     total energy              =    -216.08335050 Ry
     estimated scf accuracy    <       0.04647130 Ry

     iteration #  4     ecut=    60.00 Ry     beta= 0.30
     Davidson diagonalization with overlap
     ethr =  9.68E-05,  avg # of iterations = 13.0

     total cpu time spent up to now is     4792.1 secs

     total energy              =    -216.11288458 Ry
     estimated scf accuracy    <       0.48279640 Ry

     iteration #  5     ecut=    60.00 Ry     beta= 0.30
     Davidson diagonalization with overlap
     ethr =  9.68E-05,  avg # of iterations =  6.1

     total cpu time spent up to now is     4808.9 secs

     total energy              =    -216.10993725 Ry
     estimated scf accuracy    <       0.18780146 Ry

     iteration #  6     ecut=    60.00 Ry     beta= 0.30
     Davidson diagonalization with overlap
     ethr =  9.68E-05,  avg # of iterations =  1.5

     total cpu time spent up to now is     4822.8 secs

     total energy              =    -216.10462391 Ry
     estimated scf accuracy    <       0.15463862 Ry

     iteration #  7     ecut=    60.00 Ry     beta= 0.30
     Davidson diagonalization with overlap
     ethr =  9.68E-05,  avg # of iterations =  2.1

     total cpu time spent up to now is     4836.9 secs

     total energy              =    -216.09514547 Ry
     estimated scf accuracy    <       0.11092828 Ry

     iteration #  8     ecut=    60.00 Ry     beta= 0.30
     Davidson diagonalization with overlap
     ethr =  9.68E-05,  avg # of iterations =  6.4

     total cpu time spent up to now is     4853.9 secs

     total energy              =    -216.10559803 Ry
     estimated scf accuracy    <       0.00174253 Ry

     iteration #  9     ecut=    60.00 Ry     beta= 0.30
     Davidson diagonalization with overlap
     c_bands:  1 eigenvalues not converged
     c_bands:  1 eigenvalues not converged
     c_bands:  1 eigenvalues not converged
     c_bands:  1 eigenvalues not converged
     c_bands:  1 eigenvalues not converged
     c_bands:  1 eigenvalues not converged
     c_bands:  1 eigenvalues not converged
     c_bands:  1 eigenvalues not converged
     c_bands:  1 eigenvalues not converged
     c_bands:  1 eigenvalues not converged
     ethr =  3.63E-06,  avg # of iterations = 11.3

     total cpu time spent up to now is     4880.7 secs

     total energy              =    -216.11079508 Ry
     estimated scf accuracy    <       0.02679298 Ry

     iteration # 10     ecut=    60.00 Ry     beta= 0.30
     Davidson diagonalization with overlap
     ethr =  3.63E-06,  avg # of iterations =  2.9

     total cpu time spent up to now is     4895.9 secs

     total energy              =    -216.10592281 Ry
     estimated scf accuracy    <       0.02530162 Ry

     iteration # 11     ecut=    60.00 Ry     beta= 0.30
     Davidson diagonalization with overlap
     c_bands:  1 eigenvalues not converged
     c_bands:  1 eigenvalues not converged
     c_bands:  1 eigenvalues not converged
     ethr =  3.63E-06,  avg # of iterations = 12.4

     total cpu time spent up to now is     4920.9 secs

     total energy              =    -216.10879232 Ry
     estimated scf accuracy    <       0.00505456 Ry

     iteration # 12     ecut=    60.00 Ry     beta= 0.30
     Davidson diagonalization with overlap
     ethr =  3.63E-06,  avg # of iterations =  5.3

     total cpu time spent up to now is     4937.0 secs

     total energy              =    -216.10871977 Ry
     estimated scf accuracy    <       0.00090210 Ry

     iteration # 13     ecut=    60.00 Ry     beta= 0.30
     Davidson diagonalization with overlap
     ethr =  1.88E-06,  avg # of iterations =  8.0

     total cpu time spent up to now is     4956.1 secs

     total energy              =    -216.10910132 Ry
     estimated scf accuracy    <       0.00113649 Ry

     iteration # 14     ecut=    60.00 Ry     beta= 0.30
     Davidson diagonalization with overlap
     ethr =  1.88E-06,  avg # of iterations =  1.0

     total cpu time spent up to now is     4969.7 secs

     total energy              =    -216.10893724 Ry
     estimated scf accuracy    <       0.00127804 Ry

     iteration # 15     ecut=    60.00 Ry     beta= 0.30
     Davidson diagonalization with overlap
     ethr =  1.88E-06,  avg # of iterations =  1.3

     total cpu time spent up to now is     4983.6 secs

     total energy              =    -216.10885615 Ry
     estimated scf accuracy    <       0.00081313 Ry

     iteration # 16     ecut=    60.00 Ry     beta= 0.30
     Davidson diagonalization with overlap
     ethr =  1.69E-06,  avg # of iterations =  4.5

     total cpu time spent up to now is     4999.1 secs

     total energy              =    -216.10893982 Ry
     estimated scf accuracy    <       0.00005503 Ry

     iteration # 17     ecut=    60.00 Ry     beta= 0.30
     Davidson diagonalization with overlap
     ethr =  1.15E-07,  avg # of iterations =  7.0

     total cpu time spent up to now is     5018.0 secs

     total energy              =    -216.10895854 Ry
     estimated scf accuracy    <       0.00008372 Ry

     iteration # 18     ecut=    60.00 Ry     beta= 0.30
     Davidson diagonalization with overlap
     ethr =  1.15E-07,  avg # of iterations =  1.3

     total cpu time spent up to now is     5031.7 secs

     total energy              =    -216.10895248 Ry
     estimated scf accuracy    <       0.00006410 Ry

     iteration # 19     ecut=    60.00 Ry     beta= 0.30
     Davidson diagonalization with overlap
     ethr =  1.15E-07,  avg # of iterations =  4.4

     total cpu time spent up to now is     5047.0 secs

     total energy              =    -216.10895775 Ry
     estimated scf accuracy    <       0.00001270 Ry

     iteration # 20     ecut=    60.00 Ry     beta= 0.30
     Davidson diagonalization with overlap
     ethr =  2.65E-08,  avg # of iterations =  4.8

     total cpu time spent up to now is     5063.1 secs

     total energy              =    -216.10895248 Ry
     estimated scf accuracy    <       0.00002374 Ry

     iteration # 21     ecut=    60.00 Ry     beta= 0.30
     Davidson diagonalization with overlap
     c_bands:  1 eigenvalues not converged
     c_bands:  1 eigenvalues not converged
     ethr =  2.65E-08,  avg # of iterations = 11.8

     total cpu time spent up to now is     5088.0 secs

     total energy              =    -216.10895686 Ry
     estimated scf accuracy    <       0.00012579 Ry

     iteration # 22     ecut=    60.00 Ry     beta= 0.30
     Davidson diagonalization with overlap
     ethr =  2.65E-08,  avg # of iterations =  7.5

     total cpu time spent up to now is     5111.6 secs

     total energy              =    -216.10895281 Ry
     estimated scf accuracy    <       0.00007585 Ry

     iteration # 23     ecut=    60.00 Ry     beta= 0.30
     Davidson diagonalization with overlap
     ethr =  2.65E-08,  avg # of iterations =  7.2

     total cpu time spent up to now is     5129.7 secs

     total energy              =    -216.10895758 Ry
     estimated scf accuracy    <       0.00000365 Ry

     iteration # 24     ecut=    60.00 Ry     beta= 0.30
     Davidson diagonalization with overlap
     ethr =  7.60E-09,  avg # of iterations =  7.2

     total cpu time spent up to now is     5147.6 secs

     total energy              =    -216.10895777 Ry
     estimated scf accuracy    <       0.00001623 Ry

     iteration # 25     ecut=    60.00 Ry     beta= 0.30
     Davidson diagonalization with overlap
     ethr =  7.60E-09,  avg # of iterations =  1.0

     total cpu time spent up to now is     5161.3 secs

     total energy              =    -216.10895525 Ry
     estimated scf accuracy    <       0.00001449 Ry

     iteration # 26     ecut=    60.00 Ry     beta= 0.30
     Davidson diagonalization with overlap
     ethr =  7.60E-09,  avg # of iterations =  8.5

     total cpu time spent up to now is     5179.8 secs

     total energy              =    -216.10895717 Ry
     estimated scf accuracy    <       0.00000206 Ry

     iteration # 27     ecut=    60.00 Ry     beta= 0.30
     Davidson diagonalization with overlap
     ethr =  4.30E-09,  avg # of iterations =  1.1

     total cpu time spent up to now is     5193.6 secs

     total energy              =    -216.10895698 Ry
     estimated scf accuracy    <       0.00000168 Ry

     iteration # 28     ecut=    60.00 Ry     beta= 0.30
     Davidson diagonalization with overlap
     ethr =  3.51E-09,  avg # of iterations =  5.2

     total cpu time spent up to now is     5209.3 secs

     total energy              =    -216.10895717 Ry
     estimated scf accuracy    <       0.00000003 Ry

     iteration # 29     ecut=    60.00 Ry     beta= 0.30
     Davidson diagonalization with overlap
     c_bands:  1 eigenvalues not converged
     c_bands:  1 eigenvalues not converged
     ethr =  5.77E-11,  avg # of iterations = 11.8

     total cpu time spent up to now is     5234.5 secs

     total energy              =    -216.10895714 Ry
     estimated scf accuracy    <       0.00000017 Ry

     iteration # 30     ecut=    60.00 Ry     beta= 0.30
     Davidson diagonalization with overlap
     c_bands:  1 eigenvalues not converged
     c_bands:  1 eigenvalues not converged
     c_bands:  1 eigenvalues not converged
     c_bands:  1 eigenvalues not converged
     c_bands:  1 eigenvalues not converged
     c_bands:  1 eigenvalues not converged
     c_bands:  1 eigenvalues not converged
     ethr =  5.77E-11,  avg # of iterations = 14.3

     total cpu time spent up to now is     5265.8 secs

     total energy              =    -216.10895719 Ry
     estimated scf accuracy    <       0.00000056 Ry

     iteration # 31     ecut=    60.00 Ry     beta= 0.30
     Davidson diagonalization with overlap
     ethr =  5.77E-11,  avg # of iterations =  7.9

     total cpu time spent up to now is     5284.6 secs

     total energy              =    -216.10895718 Ry
     estimated scf accuracy    <       0.00000013 Ry

     iteration # 32     ecut=    60.00 Ry     beta= 0.30
     Davidson diagonalization with overlap
     ethr =  5.77E-11,  avg # of iterations =  8.8

     total cpu time spent up to now is     5305.4 secs

     total energy              =    -216.10895719 Ry
     estimated scf accuracy    <          8.8E-09 Ry

     iteration # 33     ecut=    60.00 Ry     beta= 0.30
     Davidson diagonalization with overlap
     ethr =  1.84E-11,  avg # of iterations =  5.9

     total cpu time spent up to now is     5321.5 secs

     End of self-consistent calculation

     Number of k-points >= 100: set verbosity='high' to print the bands.

     highest occupied level (ev):     3.4284

!    total energy              =    -216.10895719 Ry
     estimated scf accuracy    <          3.4E-10 Ry

     The total energy is the sum of the following terms:
     one-electron contribution =    -121.35351132 Ry
     hartree contribution      =      83.58815075 Ry
     xc contribution           =     -48.56252726 Ry
     ewald contribution        =    -129.78106937 Ry

     convergence has been achieved in  33 iterations

     Forces acting on atoms (cartesian axes, Ry/au):

     atom    1 type  1   force =     0.01344347    0.00721514   -0.05620237
     atom    2 type  1   force =    -0.00150274    0.04708836    0.01784357
     atom    3 type  1   force =     0.04026632    0.02792741   -0.00659809
     atom    4 type  2   force =    -0.02599971    0.00518019   -0.02756252
     atom    5 type  2   force =     0.03281521   -0.02285359    0.01382080
     atom    6 type  2   force =    -0.01329841    0.04663029   -0.00892958
     atom    7 type  2   force =     0.00917720   -0.00671244    0.04705211
     atom    8 type  2   force =     0.01664987   -0.01591669    0.00931906
     atom    9 type  2   force =    -0.07155122   -0.08855867    0.01125702

     Total force =     0.173515     Total SCF correction =     0.000028


     Computing stress (Cartesian axis) and pressure

          total   stress  (Ry/bohr**3)                   (kbar)     P=      -29.20
  -0.00015517  -0.00017002   0.00007906          -22.83      -25.01       11.63
  -0.00017002  -0.00020553   0.00030739          -25.01      -30.23       45.22
   0.00007906   0.00030739  -0.00023475           11.63       45.22      -34.53

     Energy error            =      2.3E-02 Ry
     Gradient error          =      8.9E-02 Ry/Bohr
     Cell gradient error     =      4.5E+01 kbar

     number of scf cycles    =  12
     number of bfgs steps    =  11

     enthalpy           old  =    -216.0856751657 Ry
     enthalpy           new  =    -216.1089571942 Ry

     CASE: enthalpy          _new < enthalpy          _old

     new trust radius        =       0.3070910886 bohr
ibrav =      4
 celldm(1) =      9.45708610
 celldm(3) =      1.17199547
Input lattice vectors:
     1.01920084    -0.00225616     0.00021639
    -0.51155432     0.88524797     0.00273597
     0.00021065     0.00358271     1.19449634
New lattice vectors in INITIAL alat:
     1.01920336     0.00000000     0.00000000
    -0.50960168     0.88265601     0.00000000
     0.00000000     0.00000000     1.19450173
New lattice vectors in NEW alat (for information only):
     1.00000000     0.00000000     0.00000000
    -0.50000000     0.86602540     0.00000000
     0.00000000     0.00000000     1.17199547
Discrepancy in bohr =     0.002267    0.004245    0.003589
     new conv_thr            =       0.0000000089 Ry

     new unit-cell volume =    858.47686 a.u.^3 (   127.21315 Ang^3 )
     density =      2.35288 g/cm^3

CELL_PARAMETERS (alat=  9.27890000)
   1.019203365   0.000000000   0.000000000
  -0.509601682   0.882656005   0.000000000
   0.000000000   0.000000000   1.194501731

ATOMIC_POSITIONS (crystal)
Si               0.4840870495        0.5297047379        0.0478485950
Si               0.4359596900        0.0092298895        0.3328037779
Si              -0.0742746236        0.5315177352        0.6830660299
O                0.3565831408        0.5689053945        0.7736533526
O                0.5313733386        0.8310286657        0.1566723852
O                0.1124923695        0.7117698008        0.4489591854
O                0.6998478717        0.3926187058        0.1210943915
O                0.6531695530        0.2099116336        0.5603960101
O                0.2141556106        0.2153654369        0.9752882723



     Writing config-only to output data dir ./tmp_quartz_ibrav4/quartz_ibrav4.save/ :
     XML data file
     NEW-OLD atomic charge density approx. for the potential
     New effective cutoffs (rho, wfc):  461.75   57.75

     total cpu time spent up to now is     5329.2 secs

     Self-consistent Calculation

     iteration #  1     ecut=    60.00 Ry     beta= 0.30
     Davidson diagonalization with overlap
     c_bands:  2 eigenvalues not converged
     c_bands:  2 eigenvalues not converged
     c_bands:  2 eigenvalues not converged
     c_bands:  2 eigenvalues not converged
     c_bands:  2 eigenvalues not converged
     c_bands:  2 eigenvalues not converged
     c_bands:  2 eigenvalues not converged
     c_bands:  1 eigenvalues not converged
     c_bands:  2 eigenvalues not converged
     c_bands:  2 eigenvalues not converged
     c_bands:  2 eigenvalues not converged
     c_bands:  2 eigenvalues not converged
     c_bands:  2 eigenvalues not converged
     c_bands:  2 eigenvalues not converged
     c_bands:  2 eigenvalues not converged
     c_bands:  2 eigenvalues not converged
     c_bands:  2 eigenvalues not converged
     c_bands:  2 eigenvalues not converged
     c_bands:  2 eigenvalues not converged
     c_bands:  2 eigenvalues not converged
     c_bands:  2 eigenvalues not converged
     c_bands:  2 eigenvalues not converged
     c_bands:  2 eigenvalues not converged
     c_bands:  2 eigenvalues not converged
     c_bands:  2 eigenvalues not converged
     c_bands:  2 eigenvalues not converged
     c_bands:  1 eigenvalues not converged
     c_bands:  2 eigenvalues not converged
     c_bands:  2 eigenvalues not converged
     c_bands:  2 eigenvalues not converged
     c_bands:  2 eigenvalues not converged
     c_bands:  2 eigenvalues not converged
     c_bands:  2 eigenvalues not converged
     c_bands:  2 eigenvalues not converged
     c_bands:  2 eigenvalues not converged
     c_bands:  2 eigenvalues not converged
     c_bands:  2 eigenvalues not converged
     c_bands:  2 eigenvalues not converged
     c_bands:  2 eigenvalues not converged
     c_bands:  1 eigenvalues not converged
     c_bands:  2 eigenvalues not converged
     c_bands:  1 eigenvalues not converged
     c_bands:  2 eigenvalues not converged
     c_bands:  2 eigenvalues not converged
     c_bands:  2 eigenvalues not converged
     c_bands:  2 eigenvalues not converged
     c_bands:  2 eigenvalues not converged
     c_bands:  1 eigenvalues not converged
     c_bands:  2 eigenvalues not converged
     c_bands:  1 eigenvalues not converged
     c_bands:  1 eigenvalues not converged
     c_bands:  1 eigenvalues not converged
     c_bands:  1 eigenvalues not converged
     c_bands:  1 eigenvalues not converged
     c_bands:  1 eigenvalues not converged
     c_bands:  1 eigenvalues not converged
     c_bands:  1 eigenvalues not converged
     c_bands:  1 eigenvalues not converged
     c_bands:  1 eigenvalues not converged
     c_bands:  1 eigenvalues not converged
     c_bands:  1 eigenvalues not converged
     c_bands:  2 eigenvalues not converged
     c_bands:  2 eigenvalues not converged
     c_bands:  2 eigenvalues not converged
     c_bands:  2 eigenvalues not converged
     c_bands:  2 eigenvalues not converged
     c_bands:  2 eigenvalues not converged
     c_bands:  1 eigenvalues not converged
     c_bands:  2 eigenvalues not converged
     c_bands:  2 eigenvalues not converged
     c_bands:  1 eigenvalues not converged
     c_bands:  1 eigenvalues not converged
     c_bands:  2 eigenvalues not converged
     c_bands:  2 eigenvalues not converged
     c_bands:  2 eigenvalues not converged
     c_bands:  1 eigenvalues not converged
     c_bands:  2 eigenvalues not converged
     c_bands:  1 eigenvalues not converged
     c_bands:  2 eigenvalues not converged
     c_bands:  2 eigenvalues not converged
     c_bands:  2 eigenvalues not converged
     c_bands:  1 eigenvalues not converged
     c_bands:  1 eigenvalues not converged
     c_bands:  1 eigenvalues not converged
     c_bands:  2 eigenvalues not converged
     c_bands:  1 eigenvalues not converged
     c_bands:  1 eigenvalues not converged
     c_bands:  2 eigenvalues not converged
     c_bands:  2 eigenvalues not converged
     c_bands:  2 eigenvalues not converged
     c_bands:  2 eigenvalues not converged
     c_bands:  1 eigenvalues not converged
     c_bands:  1 eigenvalues not converged
     c_bands:  1 eigenvalues not converged
     c_bands:  2 eigenvalues not converged
     c_bands:  1 eigenvalues not converged
     c_bands:  1 eigenvalues not converged
     c_bands:  1 eigenvalues not converged
     c_bands:  2 eigenvalues not converged
     c_bands:  1 eigenvalues not converged
     c_bands:  1 eigenvalues not converged
     c_bands:  1 eigenvalues not converged
     ethr =  1.00E-06,  avg # of iterations = 19.8

     total cpu time spent up to now is     5406.3 secs

     total energy              =    -216.09928061 Ry
     estimated scf accuracy    <       0.17634665 Ry

     iteration #  2     ecut=    60.00 Ry     beta= 0.30
     Davidson diagonalization with overlap
     ethr =  3.67E-04,  avg # of iterations =  8.0

     total cpu time spent up to now is     5426.4 secs

     total energy              =    -216.12139571 Ry
     estimated scf accuracy    <       0.28488078 Ry

     iteration #  3     ecut=    60.00 Ry     beta= 0.30
     Davidson diagonalization with overlap
     ethr =  3.67E-04,  avg # of iterations =  3.5

     total cpu time spent up to now is     5441.8 secs

     total energy              =    -216.10202318 Ry
     estimated scf accuracy    <       0.07461498 Ry

     iteration #  4     ecut=    60.00 Ry     beta= 0.30
     Davidson diagonalization with overlap
     ethr =  1.55E-04,  avg # of iterations = 10.8

     total cpu time spent up to now is     5466.3 secs

     total energy              =    -216.14955481 Ry
     estimated scf accuracy    <       0.48140458 Ry

     iteration #  5     ecut=    60.00 Ry     beta= 0.30
     Davidson diagonalization with overlap
     ethr =  1.55E-04,  avg # of iterations =  4.1

     total cpu time spent up to now is     5482.1 secs

     total energy              =    -216.13236044 Ry
     estimated scf accuracy    <       0.22346886 Ry

     iteration #  6     ecut=    60.00 Ry     beta= 0.30
     Davidson diagonalization with overlap
     ethr =  1.55E-04,  avg # of iterations =  5.9

     total cpu time spent up to now is     5498.8 secs

     total energy              =    -216.14230058 Ry
     estimated scf accuracy    <       0.04210753 Ry

     iteration #  7     ecut=    60.00 Ry     beta= 0.30
     Davidson diagonalization with overlap
     ethr =  8.77E-05,  avg # of iterations =  1.0

     total cpu time spent up to now is     5512.9 secs

     total energy              =    -216.14561292 Ry
     estimated scf accuracy    <       0.04111758 Ry

     iteration #  8     ecut=    60.00 Ry     beta= 0.30
     Davidson diagonalization with overlap
     ethr =  8.57E-05,  avg # of iterations =  2.1

     total cpu time spent up to now is     5528.0 secs

     total energy              =    -216.14186963 Ry
     estimated scf accuracy    <       0.05275038 Ry

     iteration #  9     ecut=    60.00 Ry     beta= 0.30
     Davidson diagonalization with overlap
     ethr =  8.57E-05,  avg # of iterations =  1.2

     total cpu time spent up to now is     5541.7 secs

     total energy              =    -216.13705580 Ry
     estimated scf accuracy    <       0.04089195 Ry

     iteration # 10     ecut=    60.00 Ry     beta= 0.30
     Davidson diagonalization with overlap
     ethr =  8.52E-05,  avg # of iterations =  3.1

     total cpu time spent up to now is     5556.3 secs

     total energy              =    -216.13717085 Ry
     estimated scf accuracy    <       0.01082494 Ry

     iteration # 11     ecut=    60.00 Ry     beta= 0.30
     Davidson diagonalization with overlap
     ethr =  2.26E-05,  avg # of iterations =  7.4

     total cpu time spent up to now is     5574.7 secs

     total energy              =    -216.14546418 Ry
     estimated scf accuracy    <       0.02192824 Ry

     iteration # 12     ecut=    60.00 Ry     beta= 0.30
     Davidson diagonalization with overlap
     ethr =  2.26E-05,  avg # of iterations =  1.0

     total cpu time spent up to now is     5588.4 secs

     total energy              =    -216.14554972 Ry
     estimated scf accuracy    <       0.02314096 Ry

     iteration # 13     ecut=    60.00 Ry     beta= 0.30
     Davidson diagonalization with overlap
     ethr =  2.26E-05,  avg # of iterations =  1.0

     total cpu time spent up to now is     5602.1 secs

     total energy              =    -216.14437145 Ry
     estimated scf accuracy    <       0.02356708 Ry

     iteration # 14     ecut=    60.00 Ry     beta= 0.30
     Davidson diagonalization with overlap
     ethr =  2.26E-05,  avg # of iterations =  1.0

     total cpu time spent up to now is     5615.7 secs

     total energy              =    -216.14282123 Ry
     estimated scf accuracy    <       0.02068430 Ry

     iteration # 15     ecut=    60.00 Ry     beta= 0.30
     Davidson diagonalization with overlap
     ethr =  2.26E-05,  avg # of iterations =  2.5

     total cpu time spent up to now is     5630.3 secs

     total energy              =    -216.14282713 Ry
     estimated scf accuracy    <       0.00925372 Ry

     iteration # 16     ecut=    60.00 Ry     beta= 0.30
     Davidson diagonalization with overlap
     ethr =  1.93E-05,  avg # of iterations =  1.4

     total cpu time spent up to now is     5644.4 secs

     total energy              =    -216.14218193 Ry
     estimated scf accuracy    <       0.00722025 Ry

     iteration # 17     ecut=    60.00 Ry     beta= 0.30
     Davidson diagonalization with overlap
     ethr =  1.50E-05,  avg # of iterations =  4.2

     total cpu time spent up to now is     5659.9 secs

     total energy              =    -216.14306057 Ry
     estimated scf accuracy    <       0.00017381 Ry

     iteration # 18     ecut=    60.00 Ry     beta= 0.30
     Davidson diagonalization with overlap
     c_bands:  1 eigenvalues not converged
     c_bands:  1 eigenvalues not converged
     ethr =  3.62E-07,  avg # of iterations =  9.3

     total cpu time spent up to now is     5683.3 secs

     total energy              =    -216.14340134 Ry
     estimated scf accuracy    <       0.00061621 Ry

     iteration # 19     ecut=    60.00 Ry     beta= 0.30
     Davidson diagonalization with overlap
     ethr =  3.62E-07,  avg # of iterations =  2.4

     total cpu time spent up to now is     5698.0 secs

     total energy              =    -216.14350986 Ry
     estimated scf accuracy    <       0.00090230 Ry

     iteration # 20     ecut=    60.00 Ry     beta= 0.30
     Davidson diagonalization with overlap
     ethr =  3.62E-07,  avg # of iterations =  8.3

     total cpu time spent up to now is     5717.8 secs

     total energy              =    -216.14361109 Ry
     estimated scf accuracy    <       0.00331145 Ry

     iteration # 21     ecut=    60.00 Ry     beta= 0.30
     Davidson diagonalization with overlap
     ethr =  3.62E-07,  avg # of iterations =  1.0

     total cpu time spent up to now is     5731.7 secs

     total energy              =    -216.14391221 Ry
     estimated scf accuracy    <       0.00337151 Ry

     iteration # 22     ecut=    60.00 Ry     beta= 0.30
     Davidson diagonalization with overlap
     ethr =  3.62E-07,  avg # of iterations =  8.3

     total cpu time spent up to now is     5751.3 secs

     total energy              =    -216.14346471 Ry
     estimated scf accuracy    <       0.00817676 Ry

     iteration # 23     ecut=    60.00 Ry     beta= 0.30
     Davidson diagonalization with overlap
     ethr =  3.62E-07,  avg # of iterations =  7.5

     total cpu time spent up to now is     5770.8 secs

     total energy              =    -216.14362209 Ry
     estimated scf accuracy    <       0.00317301 Ry

     iteration # 24     ecut=    60.00 Ry     beta= 0.30
     Davidson diagonalization with overlap
     ethr =  3.62E-07,  avg # of iterations =  1.0

     total cpu time spent up to now is     5784.6 secs

     total energy              =    -216.14358261 Ry
     estimated scf accuracy    <       0.00331783 Ry

     iteration # 25     ecut=    60.00 Ry     beta= 0.30
     Davidson diagonalization with overlap
     ethr =  3.62E-07,  avg # of iterations =  1.0

     total cpu time spent up to now is     5798.1 secs

     total energy              =    -216.14353262 Ry
     estimated scf accuracy    <       0.00323599 Ry

     iteration # 26     ecut=    60.00 Ry     beta= 0.30
     Davidson diagonalization with overlap
     ethr =  3.62E-07,  avg # of iterations =  1.0

     total cpu time spent up to now is     5811.7 secs

     total energy              =    -216.14300047 Ry
     estimated scf accuracy    <       0.00308527 Ry

     iteration # 27     ecut=    60.00 Ry     beta= 0.30
     Davidson diagonalization with overlap
     c_bands:  1 eigenvalues not converged
     ethr =  3.62E-07,  avg # of iterations = 12.5

     total cpu time spent up to now is     5836.6 secs

     total energy              =    -216.14326129 Ry
     estimated scf accuracy    <       0.00007030 Ry

     iteration # 28     ecut=    60.00 Ry     beta= 0.30
     Davidson diagonalization with overlap
     ethr =  1.46E-07,  avg # of iterations =  8.4

     total cpu time spent up to now is     5856.7 secs

     total energy              =    -216.14328191 Ry
     estimated scf accuracy    <       0.00036251 Ry

     iteration # 29     ecut=    60.00 Ry     beta= 0.30
     Davidson diagonalization with overlap
     ethr =  1.46E-07,  avg # of iterations =  3.5

     total cpu time spent up to now is     5871.7 secs

     total energy              =    -216.14326871 Ry
     estimated scf accuracy    <       0.00016795 Ry

     iteration # 30     ecut=    60.00 Ry     beta= 0.30
     Davidson diagonalization with overlap
     ethr =  1.46E-07,  avg # of iterations =  4.8

     total cpu time spent up to now is     5887.5 secs

     total energy              =    -216.14327494 Ry
     estimated scf accuracy    <       0.00002727 Ry

     iteration # 31     ecut=    60.00 Ry     beta= 0.30
     Davidson diagonalization with overlap
     ethr =  5.68E-08,  avg # of iterations =  4.4

     total cpu time spent up to now is     5903.5 secs

     total energy              =    -216.14327809 Ry
     estimated scf accuracy    <       0.00000548 Ry

     iteration # 32     ecut=    60.00 Ry     beta= 0.30
     Davidson diagonalization with overlap
     ethr =  1.14E-08,  avg # of iterations =  3.4

     total cpu time spent up to now is     5918.7 secs

     total energy              =    -216.14327878 Ry
     estimated scf accuracy    <       0.00000313 Ry

     iteration # 33     ecut=    60.00 Ry     beta= 0.30
     Davidson diagonalization with overlap
     ethr =  6.52E-09,  avg # of iterations =  2.0

     total cpu time spent up to now is     5933.2 secs

     total energy              =    -216.14327869 Ry
     estimated scf accuracy    <       0.00000402 Ry

     iteration # 34     ecut=    60.00 Ry     beta= 0.30
     Davidson diagonalization with overlap
     ethr =  6.52E-09,  avg # of iterations =  1.0

     total cpu time spent up to now is     5946.9 secs

     total energy              =    -216.14327804 Ry
     estimated scf accuracy    <       0.00000369 Ry

     iteration # 35     ecut=    60.00 Ry     beta= 0.30
     Davidson diagonalization with overlap
     ethr =  6.52E-09,  avg # of iterations =  5.5

     total cpu time spent up to now is     5963.1 secs

     total energy              =    -216.14327852 Ry
     estimated scf accuracy    <       0.00000030 Ry

     iteration # 36     ecut=    60.00 Ry     beta= 0.30
     Davidson diagonalization with overlap
     ethr =  6.20E-10,  avg # of iterations =  5.6

     total cpu time spent up to now is     5981.0 secs

     total energy              =    -216.14327859 Ry
     estimated scf accuracy    <       0.00000052 Ry

     iteration # 37     ecut=    60.00 Ry     beta= 0.30
     Davidson diagonalization with overlap
     ethr =  6.20E-10,  avg # of iterations =  1.0

     total cpu time spent up to now is     5994.7 secs

     total energy              =    -216.14327855 Ry
     estimated scf accuracy    <       0.00000054 Ry

     iteration # 38     ecut=    60.00 Ry     beta= 0.30
     Davidson diagonalization with overlap
     ethr =  6.20E-10,  avg # of iterations =  1.2

     total cpu time spent up to now is     6008.5 secs

     total energy              =    -216.14327846 Ry
     estimated scf accuracy    <       0.00000042 Ry

     iteration # 39     ecut=    60.00 Ry     beta= 0.30
     Davidson diagonalization with overlap
     ethr =  6.20E-10,  avg # of iterations =  7.3

     total cpu time spent up to now is     6025.8 secs

     total energy              =    -216.14327854 Ry
     estimated scf accuracy    <       0.00000009 Ry

     iteration # 40     ecut=    60.00 Ry     beta= 0.30
     Davidson diagonalization with overlap
     ethr =  1.93E-10,  avg # of iterations =  2.2

     total cpu time spent up to now is     6040.4 secs

     total energy              =    -216.14327853 Ry
     estimated scf accuracy    <       0.00000010 Ry

     iteration # 41     ecut=    60.00 Ry     beta= 0.30
     Davidson diagonalization with overlap
     ethr =  1.93E-10,  avg # of iterations =  4.4

     total cpu time spent up to now is     6055.7 secs

     total energy              =    -216.14327854 Ry
     estimated scf accuracy    <          9.4E-09 Ry

     iteration # 42     ecut=    60.00 Ry     beta= 0.30
     Davidson diagonalization with overlap
     ethr =  1.96E-11,  avg # of iterations =  7.0

     total cpu time spent up to now is     6074.0 secs

     End of self-consistent calculation

     Number of k-points >= 100: set verbosity='high' to print the bands.

     highest occupied level (ev):     3.4417

!    total energy              =    -216.14327854 Ry
     estimated scf accuracy    <          1.3E-09 Ry

     The total energy is the sum of the following terms:
     one-electron contribution =    -115.79698473 Ry
     hartree contribution      =      81.37377781 Ry
     xc contribution           =     -48.68940254 Ry
     ewald contribution        =    -133.03066907 Ry

     convergence has been achieved in  42 iterations

     Forces acting on atoms (cartesian axes, Ry/au):

     atom    1 type  1   force =     0.03291567    0.00451056   -0.10053479
     atom    2 type  1   force =     0.00859443    0.07064256    0.03745010
     atom    3 type  1   force =     0.06755987   -0.01595336    0.00261425
     atom    4 type  2   force =    -0.04476165    0.02381127   -0.03079300
     atom    5 type  2   force =     0.00383586    0.04805290    0.05790939
     atom    6 type  2   force =     0.00101848    0.09394299   -0.03404173
     atom    7 type  2   force =     0.04071717   -0.01450552    0.06723926
     atom    8 type  2   force =    -0.00974927   -0.03351138   -0.01703821
     atom    9 type  2   force =    -0.10013056   -0.17699003    0.01719474

     Total force =     0.302043     Total SCF correction =     0.000046


     Computing stress (Cartesian axis) and pressure

          total   stress  (Ry/bohr**3)                   (kbar)     P=      -16.94
  -0.00019129  -0.00025859  -0.00002576          -28.14      -38.04       -3.79
  -0.00025859   0.00024492   0.00033054          -38.04       36.03       48.62
  -0.00002576   0.00033054  -0.00039911           -3.79       48.62      -58.71

     Energy error            =      3.4E-02 Ry
     Gradient error          =      1.8E-01 Ry/Bohr
     Cell gradient error     =      5.9E+01 kbar

     number of scf cycles    =  13
     number of bfgs steps    =  12

     enthalpy           old  =    -216.1089571942 Ry
     enthalpy           new  =    -216.1432785371 Ry

     CASE: enthalpy          _new < enthalpy          _old

     new trust radius        =       0.6011710447 bohr
ibrav =      4
 celldm(1) =      9.02194042
 celldm(3) =      1.21192802
Input lattice vectors:
     0.97230440    -0.00174583    -0.00148798
    -0.48766414     0.83890484     0.00397969
    -0.00140592     0.00388827     1.17835897
New lattice vectors in INITIAL alat:
     0.97230711     0.00000000     0.00000000
    -0.48615355     0.84204266     0.00000000
     0.00000000     0.00000000     1.17836622
New lattice vectors in NEW alat (for information only):
     1.00000000     0.00000000     0.00000000
    -0.50000000     0.86602540     0.00000000
     0.00000000     0.00000000     1.21192802
Discrepancy in bohr =     0.002294    0.005288    0.004135
     new conv_thr            =       0.0000000100 Ry

     new unit-cell volume =    770.73898 a.u.^3 (   114.21173 Ang^3 )
     density =      2.62072 g/cm^3

CELL_PARAMETERS (alat=  9.27890000)
   0.972307108   0.000000000   0.000000000
  -0.486153554   0.842042655   0.000000000
   0.000000000   0.000000000   1.178366224

ATOMIC_POSITIONS (crystal)
Si               0.4731127826        0.5174484088        0.0343049517
Si               0.4675133548        0.0379726012        0.3197533119
Si              -0.0358519685        0.5808706328        0.6764113398
O                0.3444464818        0.5785350574        0.7581872794
O                0.5302225399        0.7940111426        0.1640823264
O                0.0931971490        0.7293286601        0.4362356045
O                0.6744151409        0.3661140433        0.1265214227
O                0.7103897560        0.2090535983        0.5832423858
O                0.1559487635        0.1867178556        1.0010433779



     Writing config-only to output data dir ./tmp_quartz_ibrav4/quartz_ibrav4.save/ :
     XML data file
     NEW-OLD atomic charge density approx. for the potential
     New effective cutoffs (rho, wfc):  507.34   63.46

     negative rho (up, down):  1.988E-04 0.000E+00

     total cpu time spent up to now is     6081.2 secs

     Self-consistent Calculation

     iteration #  1     ecut=    60.00 Ry     beta= 0.30
     Davidson diagonalization with overlap
     c_bands:  3 eigenvalues not converged
     c_bands:  3 eigenvalues not converged
     c_bands:  2 eigenvalues not converged
     c_bands:  2 eigenvalues not converged
     c_bands:  2 eigenvalues not converged
     c_bands:  2 eigenvalues not converged
     c_bands:  3 eigenvalues not converged
     c_bands:  2 eigenvalues not converged
     c_bands:  2 eigenvalues not converged
     c_bands:  2 eigenvalues not converged
     c_bands:  2 eigenvalues not converged
     c_bands:  1 eigenvalues not converged
     c_bands:  2 eigenvalues not converged
     c_bands:  2 eigenvalues not converged
     c_bands:  2 eigenvalues not converged
     c_bands:  2 eigenvalues not converged
     c_bands:  2 eigenvalues not converged
     c_bands:  2 eigenvalues not converged
     c_bands:  2 eigenvalues not converged
     c_bands:  2 eigenvalues not converged
     c_bands:  2 eigenvalues not converged
     c_bands:  2 eigenvalues not converged
     c_bands:  2 eigenvalues not converged
     c_bands:  2 eigenvalues not converged
     c_bands:  1 eigenvalues not converged
     c_bands:  1 eigenvalues not converged
     c_bands:  4 eigenvalues not converged
     c_bands:  2 eigenvalues not converged
     c_bands:  2 eigenvalues not converged
     c_bands:  1 eigenvalues not converged
     c_bands:  3 eigenvalues not converged
     c_bands:  2 eigenvalues not converged
     c_bands:  3 eigenvalues not converged
     c_bands:  2 eigenvalues not converged
     c_bands:  2 eigenvalues not converged
     c_bands:  2 eigenvalues not converged
     c_bands:  2 eigenvalues not converged
     c_bands:  2 eigenvalues not converged
     c_bands:  2 eigenvalues not converged
     c_bands:  2 eigenvalues not converged
     c_bands:  2 eigenvalues not converged
     c_bands:  2 eigenvalues not converged
     c_bands:  2 eigenvalues not converged
     c_bands:  2 eigenvalues not converged
     c_bands:  2 eigenvalues not converged
     c_bands:  1 eigenvalues not converged
     c_bands:  2 eigenvalues not converged
     c_bands:  2 eigenvalues not converged
     c_bands:  1 eigenvalues not converged
     c_bands:  1 eigenvalues not converged
     c_bands:  1 eigenvalues not converged
     c_bands:  1 eigenvalues not converged
     c_bands:  1 eigenvalues not converged
     c_bands:  1 eigenvalues not converged
     c_bands:  1 eigenvalues not converged
     c_bands:  1 eigenvalues not converged
     c_bands:  2 eigenvalues not converged
     c_bands:  2 eigenvalues not converged
     c_bands:  2 eigenvalues not converged
     c_bands:  2 eigenvalues not converged
     c_bands:  2 eigenvalues not converged
     c_bands:  2 eigenvalues not converged
     c_bands:  2 eigenvalues not converged
     c_bands:  2 eigenvalues not converged
     c_bands:  2 eigenvalues not converged
     c_bands:  3 eigenvalues not converged
     c_bands:  2 eigenvalues not converged
     c_bands:  1 eigenvalues not converged
     c_bands:  2 eigenvalues not converged
     c_bands:  1 eigenvalues not converged
     c_bands:  2 eigenvalues not converged
     c_bands:  1 eigenvalues not converged
     c_bands:  1 eigenvalues not converged
     c_bands:  1 eigenvalues not converged
     c_bands:  2 eigenvalues not converged
     c_bands:  2 eigenvalues not converged
     c_bands:  2 eigenvalues not converged
     c_bands:  1 eigenvalues not converged
     c_bands:  1 eigenvalues not converged
     c_bands:  1 eigenvalues not converged
     c_bands:  1 eigenvalues not converged
     c_bands:  1 eigenvalues not converged
     c_bands:  1 eigenvalues not converged
     c_bands:  2 eigenvalues not converged
     c_bands:  2 eigenvalues not converged
     c_bands:  2 eigenvalues not converged
     c_bands:  2 eigenvalues not converged
     c_bands:  1 eigenvalues not converged
     c_bands:  1 eigenvalues not converged
     c_bands:  3 eigenvalues not converged
     c_bands:  1 eigenvalues not converged
     c_bands:  1 eigenvalues not converged
     c_bands:  1 eigenvalues not converged
     c_bands:  1 eigenvalues not converged
     ethr =  1.00E-06,  avg # of iterations = 19.6

     negative rho (up, down):  6.246E-05 0.000E+00

     total cpu time spent up to now is     6167.4 secs

     total energy              =    -216.18110522 Ry
     estimated scf accuracy    <       0.32279598 Ry

     iteration #  2     ecut=    60.00 Ry     beta= 0.30
     Davidson diagonalization with overlap
     ethr =  6.72E-04,  avg # of iterations =  6.2

     negative rho (up, down):  2.770E-05 0.000E+00

     total cpu time spent up to now is     6185.2 secs

     total energy              =    -216.20491101 Ry
     estimated scf accuracy    <       0.19167303 Ry

     iteration #  3     ecut=    60.00 Ry     beta= 0.30
     Davidson diagonalization with overlap
     ethr =  3.99E-04,  avg # of iterations =  2.5

     negative rho (up, down):  3.542E-08 0.000E+00

     total cpu time spent up to now is     6199.9 secs

     total energy              =    -216.18949152 Ry
     estimated scf accuracy    <       0.05721374 Ry

     iteration #  4     ecut=    60.00 Ry     beta= 0.30
     Davidson diagonalization with overlap
     ethr =  1.19E-04,  avg # of iterations =  7.7

     total cpu time spent up to now is     6224.5 secs

     total energy              =    -216.19645830 Ry
     estimated scf accuracy    <       0.32270830 Ry

     iteration #  5     ecut=    60.00 Ry     beta= 0.30
     Davidson diagonalization with overlap
     ethr =  1.19E-04,  avg # of iterations =  6.7

     total cpu time spent up to now is     6244.1 secs

     total energy              =    -216.21351176 Ry
     estimated scf accuracy    <       0.01228349 Ry

     iteration #  6     ecut=    60.00 Ry     beta= 0.30
     Davidson diagonalization with overlap
     ethr =  2.56E-05,  avg # of iterations =  7.3

     total cpu time spent up to now is     6263.9 secs

     total energy              =    -216.21440669 Ry
     estimated scf accuracy    <       0.02752195 Ry

     iteration #  7     ecut=    60.00 Ry     beta= 0.30
     Davidson diagonalization with overlap
     ethr =  2.56E-05,  avg # of iterations =  4.6

     total cpu time spent up to now is     6279.9 secs

     total energy              =    -216.21610618 Ry
     estimated scf accuracy    <       0.00106942 Ry

     iteration #  8     ecut=    60.00 Ry     beta= 0.30
     Davidson diagonalization with overlap
     c_bands:  1 eigenvalues not converged
     c_bands:  1 eigenvalues not converged
     c_bands:  1 eigenvalues not converged
     c_bands:  1 eigenvalues not converged
     c_bands:  1 eigenvalues not converged
     c_bands:  1 eigenvalues not converged
     ethr =  2.23E-06,  avg # of iterations = 11.8

     total cpu time spent up to now is     6308.9 secs

     total energy              =    -216.21458074 Ry
     estimated scf accuracy    <       0.03950084 Ry

     iteration #  9     ecut=    60.00 Ry     beta= 0.30
     Davidson diagonalization with overlap
     ethr =  2.23E-06,  avg # of iterations =  9.1

     total cpu time spent up to now is     6333.4 secs

     total energy              =    -216.21713868 Ry
     estimated scf accuracy    <       0.00031701 Ry

     iteration # 10     ecut=    60.00 Ry     beta= 0.30
     Davidson diagonalization with overlap
     ethr =  6.60E-07,  avg # of iterations =  7.6

     total cpu time spent up to now is     6354.3 secs

     total energy              =    -216.21706056 Ry
     estimated scf accuracy    <       0.00309836 Ry

     iteration # 11     ecut=    60.00 Ry     beta= 0.30
     Davidson diagonalization with overlap
     ethr =  6.60E-07,  avg # of iterations =  4.4

     total cpu time spent up to now is     6370.0 secs

     total energy              =    -216.21697624 Ry
     estimated scf accuracy    <       0.00080158 Ry

     iteration # 12     ecut=    60.00 Ry     beta= 0.30
     Davidson diagonalization with overlap
     ethr =  6.60E-07,  avg # of iterations =  7.7

     total cpu time spent up to now is     6388.1 secs

     total energy              =    -216.21708031 Ry
     estimated scf accuracy    <       0.00029635 Ry

     iteration # 13     ecut=    60.00 Ry     beta= 0.30
     Davidson diagonalization with overlap
     ethr =  6.17E-07,  avg # of iterations =  1.0

     total cpu time spent up to now is     6401.4 secs

     total energy              =    -216.21702862 Ry
     estimated scf accuracy    <       0.00023604 Ry

     iteration # 14     ecut=    60.00 Ry     beta= 0.30
     Davidson diagonalization with overlap
     ethr =  4.92E-07,  avg # of iterations =  5.8

     total cpu time spent up to now is     6418.3 secs

     total energy              =    -216.21708462 Ry
     estimated scf accuracy    <       0.00045510 Ry

     iteration # 15     ecut=    60.00 Ry     beta= 0.30
     Davidson diagonalization with overlap
     ethr =  4.92E-07,  avg # of iterations =  1.0

     total cpu time spent up to now is     6431.8 secs

     total energy              =    -216.21706836 Ry
     estimated scf accuracy    <       0.00037596 Ry

     iteration # 16     ecut=    60.00 Ry     beta= 0.30
     Davidson diagonalization with overlap
     ethr =  4.92E-07,  avg # of iterations =  1.2

     total cpu time spent up to now is     6445.3 secs

     total energy              =    -216.21706699 Ry
     estimated scf accuracy    <       0.00031215 Ry

     iteration # 17     ecut=    60.00 Ry     beta= 0.30
     Davidson diagonalization with overlap
     ethr =  4.92E-07,  avg # of iterations =  1.0

     total cpu time spent up to now is     6458.9 secs

     total energy              =    -216.21706579 Ry
     estimated scf accuracy    <       0.00029467 Ry

     iteration # 18     ecut=    60.00 Ry     beta= 0.30
     Davidson diagonalization with overlap
     ethr =  4.92E-07,  avg # of iterations =  1.1

     total cpu time spent up to now is     6472.5 secs

     total energy              =    -216.21706465 Ry
     estimated scf accuracy    <       0.00025238 Ry

     iteration # 19     ecut=    60.00 Ry     beta= 0.30
     Davidson diagonalization with overlap
     ethr =  4.92E-07,  avg # of iterations =  2.0

     total cpu time spent up to now is     6486.6 secs

     total energy              =    -216.21706346 Ry
     estimated scf accuracy    <       0.00006923 Ry

     iteration # 20     ecut=    60.00 Ry     beta= 0.30
     Davidson diagonalization with overlap
     ethr =  1.44E-07,  avg # of iterations =  5.8

     total cpu time spent up to now is     6503.0 secs

     total energy              =    -216.21709988 Ry
     estimated scf accuracy    <       0.00014220 Ry

     iteration # 21     ecut=    60.00 Ry     beta= 0.30
     Davidson diagonalization with overlap
     ethr =  1.44E-07,  avg # of iterations =  1.0

     total cpu time spent up to now is     6516.5 secs

     total energy              =    -216.21709222 Ry
     estimated scf accuracy    <       0.00015185 Ry

     iteration # 22     ecut=    60.00 Ry     beta= 0.30
     Davidson diagonalization with overlap
     ethr =  1.44E-07,  avg # of iterations =  1.0

     total cpu time spent up to now is     6530.1 secs

     total energy              =    -216.21708461 Ry
     estimated scf accuracy    <       0.00013637 Ry

     iteration # 23     ecut=    60.00 Ry     beta= 0.30
     Davidson diagonalization with overlap
     ethr =  1.44E-07,  avg # of iterations =  1.4

     total cpu time spent up to now is     6543.9 secs

     total energy              =    -216.21708297 Ry
     estimated scf accuracy    <       0.00009934 Ry

     iteration # 24     ecut=    60.00 Ry     beta= 0.30
     Davidson diagonalization with overlap
     ethr =  1.44E-07,  avg # of iterations =  1.4

     total cpu time spent up to now is     6557.5 secs

     total energy              =    -216.21708520 Ry
     estimated scf accuracy    <       0.00005951 Ry

     iteration # 25     ecut=    60.00 Ry     beta= 0.30
     Davidson diagonalization with overlap
     ethr =  1.24E-07,  avg # of iterations =  1.0

     total cpu time spent up to now is     6571.0 secs

     total energy              =    -216.21708633 Ry
     estimated scf accuracy    <       0.00005887 Ry

     iteration # 26     ecut=    60.00 Ry     beta= 0.30
     Davidson diagonalization with overlap
     ethr =  1.23E-07,  avg # of iterations =  1.0

     total cpu time spent up to now is     6584.8 secs

     total energy              =    -216.21708698 Ry
     estimated scf accuracy    <       0.00005999 Ry

     iteration # 27     ecut=    60.00 Ry     beta= 0.30
     Davidson diagonalization with overlap
     ethr =  1.23E-07,  avg # of iterations =  1.0

     total cpu time spent up to now is     6598.4 secs

     total energy              =    -216.21708451 Ry
     estimated scf accuracy    <       0.00006074 Ry

     iteration # 28     ecut=    60.00 Ry     beta= 0.30
     Davidson diagonalization with overlap
     ethr =  1.23E-07,  avg # of iterations =  1.5

     total cpu time spent up to now is     6612.1 secs

     total energy              =    -216.21708055 Ry
     estimated scf accuracy    <       0.00003767 Ry

     iteration # 29     ecut=    60.00 Ry     beta= 0.30
     Davidson diagonalization with overlap
     ethr =  7.85E-08,  avg # of iterations =  4.7

     total cpu time spent up to now is     6627.7 secs

     total energy              =    -216.21708688 Ry
     estimated scf accuracy    <       0.00000945 Ry

     iteration # 30     ecut=    60.00 Ry     beta= 0.30
     Davidson diagonalization with overlap
     ethr =  1.97E-08,  avg # of iterations =  1.8

     total cpu time spent up to now is     6641.9 secs

     total energy              =    -216.21708654 Ry
     estimated scf accuracy    <       0.00000701 Ry

     iteration # 31     ecut=    60.00 Ry     beta= 0.30
     Davidson diagonalization with overlap
     ethr =  1.46E-08,  avg # of iterations =  2.7

     total cpu time spent up to now is     6656.5 secs

     total energy              =    -216.21708712 Ry
     estimated scf accuracy    <       0.00000021 Ry

     iteration # 32     ecut=    60.00 Ry     beta= 0.30
     Davidson diagonalization with overlap
     c_bands:  1 eigenvalues not converged
     c_bands:  1 eigenvalues not converged
     ethr =  4.32E-10,  avg # of iterations =  7.9

     total cpu time spent up to now is     6675.3 secs

     total energy              =    -216.21708743 Ry
     estimated scf accuracy    <       0.00000004 Ry

     iteration # 33     ecut=    60.00 Ry     beta= 0.30
     Davidson diagonalization with overlap
     ethr =  8.82E-11,  avg # of iterations =  6.0

     total cpu time spent up to now is     6692.4 secs

     total energy              =    -216.21708738 Ry
     estimated scf accuracy    <       0.00000036 Ry

     iteration # 34     ecut=    60.00 Ry     beta= 0.30
     Davidson diagonalization with overlap
     c_bands:  1 eigenvalues not converged
     ethr =  8.82E-11,  avg # of iterations =  7.6

     total cpu time spent up to now is     6712.0 secs

     total energy              =    -216.21708743 Ry
     estimated scf accuracy    <       0.00000007 Ry

     iteration # 35     ecut=    60.00 Ry     beta= 0.30
     Davidson diagonalization with overlap
     ethr =  8.82E-11,  avg # of iterations =  2.3

     total cpu time spent up to now is     6726.3 secs

     total energy              =    -216.21708743 Ry
     estimated scf accuracy    <       0.00000014 Ry

     iteration # 36     ecut=    60.00 Ry     beta= 0.30
     Davidson diagonalization with overlap
     ethr =  8.82E-11,  avg # of iterations =  1.1

     total cpu time spent up to now is     6739.9 secs

     total energy              =    -216.21708742 Ry
     estimated scf accuracy    <       0.00000014 Ry

     iteration # 37     ecut=    60.00 Ry     beta= 0.30
     Davidson diagonalization with overlap
     ethr =  8.82E-11,  avg # of iterations =  1.8

     total cpu time spent up to now is     6754.0 secs

     total energy              =    -216.21708742 Ry
     estimated scf accuracy    <       0.00000007 Ry

     iteration # 38     ecut=    60.00 Ry     beta= 0.30
     Davidson diagonalization with overlap
     ethr =  8.82E-11,  avg # of iterations =  1.0

     total cpu time spent up to now is     6767.7 secs

     total energy              =    -216.21708742 Ry
     estimated scf accuracy    <       0.00000007 Ry

     iteration # 39     ecut=    60.00 Ry     beta= 0.30
     Davidson diagonalization with overlap
     ethr =  8.82E-11,  avg # of iterations =  1.2

     total cpu time spent up to now is     6781.5 secs

     total energy              =    -216.21708741 Ry
     estimated scf accuracy    <       0.00000005 Ry

     iteration # 40     ecut=    60.00 Ry     beta= 0.30
     Davidson diagonalization with overlap
     ethr =  8.82E-11,  avg # of iterations =  1.2

     total cpu time spent up to now is     6795.2 secs

     total energy              =    -216.21708740 Ry
     estimated scf accuracy    <       0.00000004 Ry

     iteration # 41     ecut=    60.00 Ry     beta= 0.30
     Davidson diagonalization with overlap
     c_bands:  1 eigenvalues not converged
     c_bands:  1 eigenvalues not converged
     c_bands:  1 eigenvalues not converged
     ethr =  8.01E-11,  avg # of iterations =  9.1

     total cpu time spent up to now is     6816.8 secs

     total energy              =    -216.21708739 Ry
     estimated scf accuracy    <       0.00000059 Ry

     iteration # 42     ecut=    60.00 Ry     beta= 0.30
     Davidson diagonalization with overlap
     ethr =  8.01E-11,  avg # of iterations =  7.4

     total cpu time spent up to now is     6835.7 secs

     End of self-consistent calculation

     Number of k-points >= 100: set verbosity='high' to print the bands.

     highest occupied level (ev):     4.0543

!    total energy              =    -216.21708741 Ry
     estimated scf accuracy    <          5.3E-09 Ry

     The total energy is the sum of the following terms:
     one-electron contribution =    -100.51700881 Ry
     hartree contribution      =      75.46364521 Ry
     xc contribution           =     -49.06343605 Ry
     ewald contribution        =    -142.10028776 Ry

     convergence has been achieved in  42 iterations

     Forces acting on atoms (cartesian axes, Ry/au):

     atom    1 type  1   force =    -0.02963982   -0.20371228   -0.27952870
     atom    2 type  1   force =     0.02729484    0.03333880    0.05588468
     atom    3 type  1   force =     0.11209175   -0.09800073    0.08345310
     atom    4 type  2   force =    -0.04016900    0.04459695   -0.00592877
     atom    5 type  2   force =    -0.09439128    0.28146105    0.22152902
     atom    6 type  2   force =     0.03703874    0.20421637   -0.14860300
     atom    7 type  2   force =     0.12336686   -0.05653100    0.09467419
     atom    8 type  2   force =    -0.06917063   -0.05962512   -0.06578409
     atom    9 type  2   force =    -0.06642145   -0.14574406    0.04430358

     Total force =     0.654438     Total SCF correction =     0.000094


     Computing stress (Cartesian axis) and pressure

          total   stress  (Ry/bohr**3)                   (kbar)     P=       47.47
  -0.00005047  -0.00054592  -0.00030389           -7.42      -80.31      -44.70
  -0.00054592   0.00101290   0.00014828          -80.31      149.00       21.81
  -0.00030389   0.00014828   0.00000560          -44.70       21.81        0.82

     Energy error            =      7.4E-02 Ry
     Gradient error          =      2.8E-01 Ry/Bohr
     Cell gradient error     =      1.5E+02 kbar

     number of scf cycles    =  14
     number of bfgs steps    =  13

     enthalpy           old  =    -216.1432785371 Ry
     enthalpy           new  =    -216.2170874132 Ry

     CASE: enthalpy          _new < enthalpy          _old

     new trust radius        =       0.6990802656 bohr
ibrav =      4
 celldm(1) =      8.51675728
 celldm(3) =      1.28724080
Input lattice vectors:
     0.91782879    -0.00769928    -0.00178236
    -0.46558217     0.80202654     0.00884694
    -0.00150577     0.01024708     1.18146507
New lattice vectors in INITIAL alat:
     0.91786282     0.00000000     0.00000000
    -0.45893141     0.79489252     0.00000000
     0.00000000     0.00000000     1.18151046
New lattice vectors in NEW alat (for information only):
     1.00000000     0.00000000     0.00000000
    -0.50000000     0.86602540     0.00000000
     0.00000000     0.00000000     1.28724080
Discrepancy in bohr =     0.007903    0.013168    0.010357
     new conv_thr            =       0.0000000100 Ry

     new unit-cell volume =    688.67329 a.u.^3 (   102.05085 Ang^3 )
     density =      2.93302 g/cm^3

CELL_PARAMETERS (alat=  9.27890000)
   0.917862815   0.000000000   0.000000000
  -0.458931408   0.794892515   0.000000000
   0.000000000   0.000000000   1.181510463

ATOMIC_POSITIONS (crystal)
Si               0.4390059652        0.4747962781        0.0050511065
Si               0.5079886856        0.0745263487        0.3039906892
Si               0.0176196875        0.6399925332        0.6785824715
O                0.3265546213        0.5930907986        0.7392287092
O                0.5359119030        0.7610243227        0.1857885065
O                0.0765854381        0.7659505828        0.4089883442
O                0.6410585334        0.3310524938        0.1316170469
O                0.7742440755        0.1991716058        0.6118037470
O                0.0944250903        0.1604470363        1.0347313789



     Writing config-only to output data dir ./tmp_quartz_ibrav4/quartz_ibrav4.save/ :
     XML data file
     NEW-OLD atomic charge density approx. for the potential
     New effective cutoffs (rho, wfc):  569.27   71.21

     negative rho (up, down):  3.066E-04 0.000E+00

     total cpu time spent up to now is     6843.1 secs

     Self-consistent Calculation

     iteration #  1     ecut=    60.00 Ry     beta= 0.30
     Davidson diagonalization with overlap
     c_bands:  3 eigenvalues not converged
     c_bands:  2 eigenvalues not converged
     c_bands:  2 eigenvalues not converged
     c_bands:  4 eigenvalues not converged
     c_bands:  5 eigenvalues not converged
     c_bands:  2 eigenvalues not converged
     c_bands:  3 eigenvalues not converged
     c_bands:  3 eigenvalues not converged
     c_bands:  3 eigenvalues not converged
     c_bands:  4 eigenvalues not converged
     c_bands:  5 eigenvalues not converged
     c_bands:  4 eigenvalues not converged
     c_bands:  4 eigenvalues not converged
     c_bands:  2 eigenvalues not converged
     c_bands:  4 eigenvalues not converged
     c_bands:  3 eigenvalues not converged
     c_bands:  3 eigenvalues not converged
     c_bands:  3 eigenvalues not converged
     c_bands:  4 eigenvalues not converged
     c_bands:  1 eigenvalues not converged
     c_bands:  2 eigenvalues not converged
     c_bands:  2 eigenvalues not converged
     c_bands:  3 eigenvalues not converged
     c_bands:  2 eigenvalues not converged
     c_bands:  3 eigenvalues not converged
     c_bands:  3 eigenvalues not converged
     c_bands:  2 eigenvalues not converged
     c_bands:  4 eigenvalues not converged
     c_bands:  2 eigenvalues not converged
     c_bands:  1 eigenvalues not converged
     c_bands:  2 eigenvalues not converged
     c_bands:  1 eigenvalues not converged
     c_bands:  1 eigenvalues not converged
     c_bands:  2 eigenvalues not converged
     c_bands:  1 eigenvalues not converged
     c_bands:  1 eigenvalues not converged
     c_bands:  4 eigenvalues not converged
     c_bands:  1 eigenvalues not converged
     c_bands:  1 eigenvalues not converged
     c_bands:  1 eigenvalues not converged
     c_bands:  1 eigenvalues not converged
     c_bands:  4 eigenvalues not converged
     c_bands:  1 eigenvalues not converged
     c_bands:  2 eigenvalues not converged
     c_bands:  1 eigenvalues not converged
     c_bands:  5 eigenvalues not converged
     c_bands:  1 eigenvalues not converged
     c_bands:  1 eigenvalues not converged
     c_bands:  1 eigenvalues not converged
     c_bands:  5 eigenvalues not converged
     c_bands:  1 eigenvalues not converged
     c_bands:  4 eigenvalues not converged
     c_bands:  1 eigenvalues not converged
     c_bands:  2 eigenvalues not converged
     c_bands:  4 eigenvalues not converged
     c_bands:  4 eigenvalues not converged
     c_bands:  1 eigenvalues not converged
     c_bands:  1 eigenvalues not converged
     c_bands:  1 eigenvalues not converged
     c_bands:  1 eigenvalues not converged
     c_bands:  3 eigenvalues not converged
     c_bands:  1 eigenvalues not converged
     ethr =  1.00E-06,  avg # of iterations = 19.3

     negative rho (up, down):  8.759E-05 0.000E+00

     total cpu time spent up to now is     6934.8 secs

     total energy              =    -216.12850500 Ry
     estimated scf accuracy    <       0.41383598 Ry

     iteration #  2     ecut=    60.00 Ry     beta= 0.30
     Davidson diagonalization with overlap
     ethr =  8.62E-04,  avg # of iterations =  3.0

     negative rho (up, down):  9.068E-06 0.000E+00

     total cpu time spent up to now is     6950.2 secs

     total energy              =    -216.13668825 Ry
     estimated scf accuracy    <       0.08934133 Ry

     iteration #  3     ecut=    60.00 Ry     beta= 0.30
     Davidson diagonalization with overlap
     ethr =  1.86E-04,  avg # of iterations =  2.1

     total cpu time spent up to now is     6968.2 secs

     total energy              =    -216.14265102 Ry
     estimated scf accuracy    <       0.02070709 Ry

     iteration #  4     ecut=    60.00 Ry     beta= 0.30
     Davidson diagonalization with overlap
     ethr =  4.31E-05,  avg # of iterations =  4.6

     total cpu time spent up to now is     6988.6 secs

     total energy              =    -216.14500332 Ry
     estimated scf accuracy    <       0.00704618 Ry

     iteration #  5     ecut=    60.00 Ry     beta= 0.30
     Davidson diagonalization with overlap
     c_bands:  1 eigenvalues not converged
     c_bands:  1 eigenvalues not converged
     c_bands:  1 eigenvalues not converged
     ethr =  1.47E-05,  avg # of iterations =  9.1

     total cpu time spent up to now is     7015.8 secs

     total energy              =    -216.14492773 Ry
     estimated scf accuracy    <       0.08602133 Ry

     iteration #  6     ecut=    60.00 Ry     beta= 0.30
     Davidson diagonalization with overlap
     ethr =  1.47E-05,  avg # of iterations =  7.2

     total cpu time spent up to now is     7036.2 secs

     total energy              =    -216.14739239 Ry
     estimated scf accuracy    <       0.00625434 Ry

     iteration #  7     ecut=    60.00 Ry     beta= 0.30
     Davidson diagonalization with overlap
     ethr =  1.30E-05,  avg # of iterations =  2.8

     total cpu time spent up to now is     7051.4 secs

     total energy              =    -216.14756370 Ry
     estimated scf accuracy    <       0.00111414 Ry

     iteration #  8     ecut=    60.00 Ry     beta= 0.30
     Davidson diagonalization with overlap
     ethr =  2.32E-06,  avg # of iterations =  9.2

     total cpu time spent up to now is     7076.9 secs

     total energy              =    -216.14807986 Ry
     estimated scf accuracy    <       0.00207173 Ry

     iteration #  9     ecut=    60.00 Ry     beta= 0.30
     Davidson diagonalization with overlap
     ethr =  2.32E-06,  avg # of iterations =  1.5

     total cpu time spent up to now is     7091.1 secs

     total energy              =    -216.14791754 Ry
     estimated scf accuracy    <       0.00115760 Ry

     iteration # 10     ecut=    60.00 Ry     beta= 0.30
     Davidson diagonalization with overlap
     ethr =  2.32E-06,  avg # of iterations =  4.6

     total cpu time spent up to now is     7108.1 secs

     total energy              =    -216.14808390 Ry
     estimated scf accuracy    <       0.00001634 Ry

     iteration # 11     ecut=    60.00 Ry     beta= 0.30
     Davidson diagonalization with overlap
     ethr =  3.41E-08,  avg # of iterations =  6.9

     total cpu time spent up to now is     7132.2 secs

     total energy              =    -216.14810274 Ry
     estimated scf accuracy    <       0.00001239 Ry

     iteration # 12     ecut=    60.00 Ry     beta= 0.30
     Davidson diagonalization with overlap
     ethr =  2.58E-08,  avg # of iterations =  6.2

     total cpu time spent up to now is     7153.5 secs

     total energy              =    -216.14810548 Ry
     estimated scf accuracy    <       0.00000499 Ry

     iteration # 13     ecut=    60.00 Ry     beta= 0.30
     Davidson diagonalization with overlap
     ethr =  1.04E-08,  avg # of iterations =  5.1

     total cpu time spent up to now is     7171.6 secs

     total energy              =    -216.14810647 Ry
     estimated scf accuracy    <       0.00000015 Ry

     iteration # 14     ecut=    60.00 Ry     beta= 0.30
     Davidson diagonalization with overlap
     ethr =  3.11E-10,  avg # of iterations =  8.6

     total cpu time spent up to now is     7198.7 secs

     total energy              =    -216.14810634 Ry
     estimated scf accuracy    <       0.00000121 Ry

     iteration # 15     ecut=    60.00 Ry     beta= 0.30
     Davidson diagonalization with overlap
     ethr =  3.11E-10,  avg # of iterations =  7.5

     total cpu time spent up to now is     7224.7 secs

     End of self-consistent calculation

     Number of k-points >= 100: set verbosity='high' to print the bands.

     highest occupied level (ev):     5.0130

!    total energy              =    -216.14810649 Ry
     estimated scf accuracy    <          6.3E-09 Ry

     The total energy is the sum of the following terms:
     one-electron contribution =     -85.98588127 Ry
     hartree contribution      =      70.52138174 Ry
     xc contribution           =     -49.38807784 Ry
     ewald contribution        =    -151.29552912 Ry

     convergence has been achieved in  15 iterations

     Forces acting on atoms (cartesian axes, Ry/au):

     atom    1 type  1   force =    -0.12075647    0.13623519   -0.13529047
     atom    2 type  1   force =     0.03343224   -0.37061196    0.35370914
     atom    3 type  1   force =    -0.02077911   -0.09143305   -0.12345533
     atom    4 type  2   force =     0.18904716    0.04115120    0.11441785
     atom    5 type  2   force =    -0.06243655    0.08711605    0.07957963
     atom    6 type  2   force =     0.02611537    0.14542976    0.01839221
     atom    7 type  2   force =     0.19344519    0.23555002   -0.20620863
     atom    8 type  2   force =    -0.13509719    0.02767212   -0.08599556
     atom    9 type  2   force =    -0.10297064   -0.21110934   -0.01514884

     Total force =     0.804247     Total SCF correction =     0.000138


     Computing stress (Cartesian axis) and pressure

          total   stress  (Ry/bohr**3)                   (kbar)     P=      160.36
   0.00145643   0.00005700   0.00015818          214.25        8.38       23.27
   0.00005700   0.00166218  -0.00138052            8.38      244.52     -203.08
   0.00015818  -0.00138052   0.00015180           23.27     -203.08       22.33

     Energy error            =      6.9E-02 Ry
     Gradient error          =      3.7E-01 Ry/Bohr
     Cell gradient error     =      2.4E+02 kbar

     number of scf cycles    =  15
     number of bfgs steps    =  14

     enthalpy           old  =    -216.2170874132 Ry
     enthalpy           new  =    -216.1481064899 Ry

     CASE: enthalpy          _new > enthalpy          _old

     new trust radius        =       0.2460213896 bohr
ibrav =      4
 celldm(1) =      8.83597284
 celldm(3) =      1.23865051
Input lattice vectors:
     0.95226512     0.00000000     0.00000000
    -0.47613256     0.82468579     0.00000000
     0.00000000     0.00000000     1.17952368
New lattice vectors in INITIAL alat:
     0.95226512     0.00000000     0.00000000
    -0.47613256     0.82468579     0.00000000
     0.00000000     0.00000000     1.17952368
New lattice vectors in NEW alat (for information only):
     1.00000000     0.00000000     0.00000000
    -0.50000000     0.86602540     0.00000000
     0.00000000     0.00000000     1.23865051
Discrepancy in bohr =     0.000000    0.000000    0.000000
     new conv_thr            =       0.0000000100 Ry

     new unit-cell volume =    740.01843 a.u.^3 (   109.65942 Ang^3 )
     density =      2.72951 g/cm^3

CELL_PARAMETERS (alat=  9.27890000)
   0.952265122   0.000000000   0.000000000
  -0.476132561   0.824685787   0.000000000
   0.000000000   0.000000000   1.179523679

ATOMIC_POSITIONS (crystal)
Si               0.4605574105        0.5017473433        0.0235360516
Si               0.4824130985        0.0514287351        0.3139507889
Si              -0.0161680288        0.6026345356        0.6772105749
O                0.3378601456        0.5838933042        0.7512082670
O                0.5323169033        0.7818680630        0.1720727866
O                0.0870820604        0.7428098906        0.4262053666
O                0.6621359355        0.3532072161        0.1283972194
O                0.7338957528        0.2054158477        0.5937563693
O                0.1333007222        0.1770470644        1.0134445757



     Writing config-only to output data dir ./tmp_quartz_ibrav4/quartz_ibrav4.save/ :
     XML data file
     NEW-OLD atomic charge density approx. for the potential
     New effective cutoffs (rho, wfc):  528.90   66.16

     negative rho (up, down):  3.974E-07 0.000E+00

     total cpu time spent up to now is     7231.9 secs

     Self-consistent Calculation

     iteration #  1     ecut=    60.00 Ry     beta= 0.30
     Davidson diagonalization with overlap
     c_bands:  1 eigenvalues not converged
     c_bands:  1 eigenvalues not converged
     c_bands:  1 eigenvalues not converged
     c_bands:  1 eigenvalues not converged
     c_bands:  1 eigenvalues not converged
     c_bands:  1 eigenvalues not converged
     c_bands:  1 eigenvalues not converged
     c_bands:  2 eigenvalues not converged
     c_bands:  1 eigenvalues not converged
     c_bands:  1 eigenvalues not converged
     c_bands:  1 eigenvalues not converged
     c_bands:  1 eigenvalues not converged
     c_bands:  2 eigenvalues not converged
     c_bands:  1 eigenvalues not converged
     c_bands:  1 eigenvalues not converged
     c_bands:  1 eigenvalues not converged
     c_bands:  1 eigenvalues not converged
     c_bands:  1 eigenvalues not converged
     c_bands:  1 eigenvalues not converged
     c_bands:  1 eigenvalues not converged
     c_bands:  1 eigenvalues not converged
     c_bands:  1 eigenvalues not converged
     c_bands:  1 eigenvalues not converged
     c_bands:  1 eigenvalues not converged
     c_bands:  1 eigenvalues not converged
     c_bands:  1 eigenvalues not converged
     c_bands:  1 eigenvalues not converged
     c_bands:  1 eigenvalues not converged
     c_bands:  1 eigenvalues not converged
     c_bands:  1 eigenvalues not converged
     c_bands:  1 eigenvalues not converged
     c_bands:  1 eigenvalues not converged
     c_bands:  1 eigenvalues not converged
     c_bands:  1 eigenvalues not converged
     c_bands:  1 eigenvalues not converged
     c_bands:  1 eigenvalues not converged
     c_bands:  1 eigenvalues not converged
     c_bands:  1 eigenvalues not converged
     c_bands:  1 eigenvalues not converged
     c_bands:  2 eigenvalues not converged
     c_bands:  1 eigenvalues not converged
     c_bands:  1 eigenvalues not converged
     c_bands:  1 eigenvalues not converged
     c_bands:  1 eigenvalues not converged
     c_bands:  1 eigenvalues not converged
     c_bands:  1 eigenvalues not converged
     c_bands:  1 eigenvalues not converged
     c_bands:  1 eigenvalues not converged
     c_bands:  1 eigenvalues not converged
     c_bands:  1 eigenvalues not converged
     c_bands:  1 eigenvalues not converged
     c_bands:  1 eigenvalues not converged
     c_bands:  1 eigenvalues not converged
     c_bands:  1 eigenvalues not converged
     c_bands:  1 eigenvalues not converged
     c_bands:  1 eigenvalues not converged
     c_bands:  1 eigenvalues not converged
     c_bands:  1 eigenvalues not converged
     c_bands:  1 eigenvalues not converged
     c_bands:  1 eigenvalues not converged
     c_bands:  1 eigenvalues not converged
     c_bands:  1 eigenvalues not converged
     c_bands:  1 eigenvalues not converged
     c_bands:  1 eigenvalues not converged
     c_bands:  1 eigenvalues not converged
     c_bands:  1 eigenvalues not converged
     c_bands:  1 eigenvalues not converged
     c_bands:  1 eigenvalues not converged
     c_bands:  1 eigenvalues not converged
     c_bands:  1 eigenvalues not converged
     c_bands:  1 eigenvalues not converged
     c_bands:  1 eigenvalues not converged
     c_bands:  1 eigenvalues not converged
     c_bands:  1 eigenvalues not converged
     c_bands:  1 eigenvalues not converged
     ethr =  1.00E-06,  avg # of iterations = 19.3

     total cpu time spent up to now is     7317.4 secs

     total energy              =    -216.22086417 Ry
     estimated scf accuracy    <       0.27502754 Ry

     iteration #  2     ecut=    60.00 Ry     beta= 0.30
     Davidson diagonalization with overlap
     ethr =  5.73E-04,  avg # of iterations =  5.0

     total cpu time spent up to now is     7334.8 secs

     total energy              =    -216.25760604 Ry
     estimated scf accuracy    <       0.11422110 Ry

     iteration #  3     ecut=    60.00 Ry     beta= 0.30
     Davidson diagonalization with overlap
     ethr =  2.38E-04,  avg # of iterations =  2.6

     total cpu time spent up to now is     7349.8 secs

     total energy              =    -216.24928638 Ry
     estimated scf accuracy    <       0.03343566 Ry

     iteration #  4     ecut=    60.00 Ry     beta= 0.30
     Davidson diagonalization with overlap
     ethr =  6.97E-05,  avg # of iterations =  8.6

     total cpu time spent up to now is     7374.2 secs

     total energy              =    -216.25040750 Ry
     estimated scf accuracy    <       0.21044476 Ry

     iteration #  5     ecut=    60.00 Ry     beta= 0.30
     Davidson diagonalization with overlap
     ethr =  6.97E-05,  avg # of iterations =  6.5

     total cpu time spent up to now is     7392.9 secs

     total energy              =    -216.26219571 Ry
     estimated scf accuracy    <       0.00410971 Ry

     iteration #  6     ecut=    60.00 Ry     beta= 0.30
     Davidson diagonalization with overlap
     c_bands:  1 eigenvalues not converged
     c_bands:  1 eigenvalues not converged
     c_bands:  1 eigenvalues not converged
     c_bands:  1 eigenvalues not converged
     c_bands:  1 eigenvalues not converged
     c_bands:  1 eigenvalues not converged
     c_bands:  1 eigenvalues not converged
     c_bands:  1 eigenvalues not converged
     ethr =  8.56E-06,  avg # of iterations =  9.4

     total cpu time spent up to now is     7420.0 secs

     total energy              =    -216.26244665 Ry
     estimated scf accuracy    <       0.06463599 Ry

     iteration #  7     ecut=    60.00 Ry     beta= 0.30
     Davidson diagonalization with overlap
     ethr =  8.56E-06,  avg # of iterations =  8.3

     total cpu time spent up to now is     7442.5 secs

     total energy              =    -216.26436473 Ry
     estimated scf accuracy    <       0.00534947 Ry

     iteration #  8     ecut=    60.00 Ry     beta= 0.30
     Davidson diagonalization with overlap
     ethr =  8.56E-06,  avg # of iterations =  5.2

     total cpu time spent up to now is     7458.9 secs

     total energy              =    -216.26489735 Ry
     estimated scf accuracy    <       0.00087787 Ry

     iteration #  9     ecut=    60.00 Ry     beta= 0.30
     Davidson diagonalization with overlap
     ethr =  1.83E-06,  avg # of iterations =  4.8

     total cpu time spent up to now is     7476.9 secs

     total energy              =    -216.26490300 Ry
     estimated scf accuracy    <       0.00154722 Ry

     iteration # 10     ecut=    60.00 Ry     beta= 0.30
     Davidson diagonalization with overlap
     ethr =  1.83E-06,  avg # of iterations =  3.9

     total cpu time spent up to now is     7492.0 secs

     total energy              =    -216.26499225 Ry
     estimated scf accuracy    <       0.00018325 Ry

     iteration # 11     ecut=    60.00 Ry     beta= 0.30
     Davidson diagonalization with overlap
     ethr =  3.82E-07,  avg # of iterations =  2.8

     total cpu time spent up to now is     7507.0 secs

     total energy              =    -216.26497468 Ry
     estimated scf accuracy    <       0.00013603 Ry

     iteration # 12     ecut=    60.00 Ry     beta= 0.30
     Davidson diagonalization with overlap
     c_bands:  1 eigenvalues not converged
     ethr =  2.83E-07,  avg # of iterations =  8.7

     total cpu time spent up to now is     7529.6 secs

     total energy              =    -216.26493961 Ry
     estimated scf accuracy    <       0.00198074 Ry

     iteration # 13     ecut=    60.00 Ry     beta= 0.30
     Davidson diagonalization with overlap
     ethr =  2.83E-07,  avg # of iterations =  6.2

     total cpu time spent up to now is     7547.0 secs

     total energy              =    -216.26498904 Ry
     estimated scf accuracy    <       0.00015534 Ry

     iteration # 14     ecut=    60.00 Ry     beta= 0.30
     Davidson diagonalization with overlap
     ethr =  2.83E-07,  avg # of iterations =  1.3

     total cpu time spent up to now is     7560.8 secs

     total energy              =    -216.26498654 Ry
     estimated scf accuracy    <       0.00009338 Ry

     iteration # 15     ecut=    60.00 Ry     beta= 0.30
     Davidson diagonalization with overlap
     ethr =  1.95E-07,  avg # of iterations =  1.6

     total cpu time spent up to now is     7574.8 secs

     total energy              =    -216.26498096 Ry
     estimated scf accuracy    <       0.00005420 Ry

     iteration # 16     ecut=    60.00 Ry     beta= 0.30
     Davidson diagonalization with overlap
     ethr =  1.13E-07,  avg # of iterations =  6.9

     total cpu time spent up to now is     7591.9 secs

     total energy              =    -216.26499656 Ry
     estimated scf accuracy    <       0.00008971 Ry

     iteration # 17     ecut=    60.00 Ry     beta= 0.30
     Davidson diagonalization with overlap
     ethr =  1.13E-07,  avg # of iterations =  1.3

     total cpu time spent up to now is     7605.7 secs

     total energy              =    -216.26498234 Ry
     estimated scf accuracy    <       0.00006198 Ry

     iteration # 18     ecut=    60.00 Ry     beta= 0.30
     Davidson diagonalization with overlap
     ethr =  1.13E-07,  avg # of iterations =  6.0

     total cpu time spent up to now is     7622.7 secs

     total energy              =    -216.26499390 Ry
     estimated scf accuracy    <       0.00010968 Ry

     iteration # 19     ecut=    60.00 Ry     beta= 0.30
     Davidson diagonalization with overlap
     ethr =  1.13E-07,  avg # of iterations =  3.0

     total cpu time spent up to now is     7637.3 secs

     total energy              =    -216.26499575 Ry
     estimated scf accuracy    <       0.00002089 Ry

     iteration # 20     ecut=    60.00 Ry     beta= 0.30
     Davidson diagonalization with overlap
     ethr =  4.35E-08,  avg # of iterations =  2.6

     total cpu time spent up to now is     7651.8 secs

     total energy              =    -216.26499695 Ry
     estimated scf accuracy    <       0.00000345 Ry

     iteration # 21     ecut=    60.00 Ry     beta= 0.30
     Davidson diagonalization with overlap
     ethr =  7.19E-09,  avg # of iterations =  6.3

     total cpu time spent up to now is     7669.2 secs

     total energy              =    -216.26499842 Ry
     estimated scf accuracy    <       0.00000464 Ry

     iteration # 22     ecut=    60.00 Ry     beta= 0.30
     Davidson diagonalization with overlap
     ethr =  7.19E-09,  avg # of iterations =  1.0

     total cpu time spent up to now is     7682.8 secs

     total energy              =    -216.26499816 Ry
     estimated scf accuracy    <       0.00000448 Ry

     iteration # 23     ecut=    60.00 Ry     beta= 0.30
     Davidson diagonalization with overlap
     ethr =  7.19E-09,  avg # of iterations =  1.2

     total cpu time spent up to now is     7696.5 secs

     total energy              =    -216.26499804 Ry
     estimated scf accuracy    <       0.00000353 Ry

     iteration # 24     ecut=    60.00 Ry     beta= 0.30
     Davidson diagonalization with overlap
     ethr =  7.19E-09,  avg # of iterations =  1.2

     total cpu time spent up to now is     7710.0 secs

     total energy              =    -216.26499800 Ry
     estimated scf accuracy    <       0.00000254 Ry

     iteration # 25     ecut=    60.00 Ry     beta= 0.30
     Davidson diagonalization with overlap
     ethr =  5.29E-09,  avg # of iterations =  1.7

     total cpu time spent up to now is     7724.1 secs

     total energy              =    -216.26499812 Ry
     estimated scf accuracy    <       0.00000141 Ry

     iteration # 26     ecut=    60.00 Ry     beta= 0.30
     Davidson diagonalization with overlap
     ethr =  2.93E-09,  avg # of iterations =  2.1

     total cpu time spent up to now is     7738.3 secs

     total energy              =    -216.26499807 Ry
     estimated scf accuracy    <       0.00000063 Ry

     iteration # 27     ecut=    60.00 Ry     beta= 0.30
     Davidson diagonalization with overlap
     ethr =  1.31E-09,  avg # of iterations =  5.4

     total cpu time spent up to now is     7754.5 secs

     total energy              =    -216.26499821 Ry
     estimated scf accuracy    <       0.00000010 Ry

     iteration # 28     ecut=    60.00 Ry     beta= 0.30
     Davidson diagonalization with overlap
     ethr =  2.07E-10,  avg # of iterations =  3.7

     total cpu time spent up to now is     7769.8 secs

     total energy              =    -216.26499822 Ry
     estimated scf accuracy    <       0.00000022 Ry

     iteration # 29     ecut=    60.00 Ry     beta= 0.30
     Davidson diagonalization with overlap
     ethr =  2.07E-10,  avg # of iterations =  1.0

     total cpu time spent up to now is     7783.6 secs

     total energy              =    -216.26499821 Ry
     estimated scf accuracy    <       0.00000023 Ry

     iteration # 30     ecut=    60.00 Ry     beta= 0.30
     Davidson diagonalization with overlap
     ethr =  2.07E-10,  avg # of iterations =  1.0

     total cpu time spent up to now is     7797.7 secs

     total energy              =    -216.26499819 Ry
     estimated scf accuracy    <       0.00000020 Ry

     iteration # 31     ecut=    60.00 Ry     beta= 0.30
     Davidson diagonalization with overlap
     ethr =  2.07E-10,  avg # of iterations =  5.2

     total cpu time spent up to now is     7813.7 secs

     End of self-consistent calculation

     Number of k-points >= 100: set verbosity='high' to print the bands.

     highest occupied level (ev):     4.2989

!    total energy              =    -216.26499820 Ry
     estimated scf accuracy    <          4.9E-09 Ry

     The total energy is the sum of the following terms:
     one-electron contribution =     -94.66601770 Ry
     hartree contribution      =      73.33258347 Ry
     xc contribution           =     -49.17203989 Ry
     ewald contribution        =    -145.75952408 Ry

     convergence has been achieved in  31 iterations

     Forces acting on atoms (cartesian axes, Ry/au):

     atom    1 type  1   force =    -0.08278270   -0.05577013   -0.23193389
     atom    2 type  1   force =     0.02588526   -0.05229416    0.10041803
     atom    3 type  1   force =     0.12450786   -0.10444442    0.01617819
     atom    4 type  2   force =    -0.00701603    0.05332744    0.02080233
     atom    5 type  2   force =    -0.06733176    0.20237481    0.17346051
     atom    6 type  2   force =     0.02324453    0.18594869   -0.09629850
     atom    7 type  2   force =     0.15816540   -0.01196410    0.05330504
     atom    8 type  2   force =    -0.08802536   -0.02278162   -0.06995043
     atom    9 type  2   force =    -0.08664721   -0.19439652    0.03401873

     Total force =     0.561096     Total SCF correction =     0.000091


     Computing stress (Cartesian axis) and pressure

          total   stress  (Ry/bohr**3)                   (kbar)     P=       62.17
   0.00021762  -0.00030880  -0.00020757           32.01      -45.43      -30.53
  -0.00030880   0.00111409  -0.00025725          -45.43      163.89      -37.84
  -0.00020757  -0.00025725  -0.00006382          -30.53      -37.84       -9.39

     Energy error            =      4.8E-02 Ry
     Gradient error          =      2.3E-01 Ry/Bohr
     Cell gradient error     =      1.6E+02 kbar

     number of scf cycles    =  16
     number of bfgs steps    =  14

     enthalpy           old  =    -216.2170874132 Ry
     enthalpy           new  =    -216.2649981997 Ry

     CASE: enthalpy          _new < enthalpy          _old

     new trust radius        =       0.3961309959 bohr
ibrav =      4
 celldm(1) =      8.79994449
 celldm(3) =      1.24013332
Input lattice vectors:
     0.94836852     0.00463794     0.00214850
    -0.47016769     0.80502432    -0.01380081
     0.00231762    -0.01483112     1.17602468
New lattice vectors in INITIAL alat:
     0.94838230     0.00000000     0.00000000
    -0.47419115     0.82132316     0.00000000
     0.00000000     0.00000000     1.17612048
New lattice vectors in NEW alat (for information only):
     1.00000000     0.00000000     0.00000000
    -0.50000000     0.86602540     0.00000000
     0.00000000     0.00000000     1.24013332
Discrepancy in bohr =     0.005111    0.021733    0.015011
     new conv_thr            =       0.0000000100 Ry

     new unit-cell volume =    731.87819 a.u.^3 (   108.45316 Ang^3 )
     density =      2.75987 g/cm^3

CELL_PARAMETERS (alat=  9.27890000)
   0.948382297   0.000000000   0.000000000
  -0.474191148   0.821323161   0.000000000
   0.000000000   0.000000000   1.176120484

ATOMIC_POSITIONS (crystal)
Si               0.4562208390        0.4860610424       -0.0108398499
Si               0.4953676271        0.0519539312        0.3172242060
Si               0.0167375591        0.6063494847        0.6699882104
O                0.3247272328        0.5732531118        0.7506371005
O                0.5489498160        0.7723102092        0.1924423815
O                0.0864608613        0.7765988503        0.4203315664
O                0.6604999750        0.3650098876        0.1503587616
O                0.7341778115        0.2164148852        0.6058764272
O                0.0902522782        0.1521005976        1.0037631963



     Writing config-only to output data dir ./tmp_quartz_ibrav4/quartz_ibrav4.save/ :
     XML data file
     NEW-OLD atomic charge density approx. for the potential
     New effective cutoffs (rho, wfc):  533.24   66.70

     negative rho (up, down):  4.264E-04 0.000E+00

     total cpu time spent up to now is     7821.1 secs

     Self-consistent Calculation

     iteration #  1     ecut=    60.00 Ry     beta= 0.30
     Davidson diagonalization with overlap
     c_bands:  3 eigenvalues not converged
     c_bands:  3 eigenvalues not converged
     c_bands:  1 eigenvalues not converged
     c_bands:  1 eigenvalues not converged
     c_bands:  2 eigenvalues not converged
     c_bands:  3 eigenvalues not converged
     c_bands:  1 eigenvalues not converged
     c_bands:  2 eigenvalues not converged
     c_bands:  2 eigenvalues not converged
     c_bands:  1 eigenvalues not converged
     c_bands:  1 eigenvalues not converged
     c_bands:  2 eigenvalues not converged
     c_bands:  2 eigenvalues not converged
     c_bands:  2 eigenvalues not converged
     c_bands:  1 eigenvalues not converged
     c_bands:  1 eigenvalues not converged
     c_bands:  1 eigenvalues not converged
     c_bands:  2 eigenvalues not converged
     c_bands:  1 eigenvalues not converged
     c_bands:  1 eigenvalues not converged
     c_bands:  1 eigenvalues not converged
     c_bands:  1 eigenvalues not converged
     c_bands:  1 eigenvalues not converged
     c_bands:  1 eigenvalues not converged
     c_bands:  5 eigenvalues not converged
     c_bands:  1 eigenvalues not converged
     c_bands:  1 eigenvalues not converged
     c_bands:  1 eigenvalues not converged
     c_bands:  1 eigenvalues not converged
     c_bands:  1 eigenvalues not converged
     c_bands:  1 eigenvalues not converged
     c_bands:  1 eigenvalues not converged
     c_bands:  1 eigenvalues not converged
     c_bands:  1 eigenvalues not converged
     c_bands:  2 eigenvalues not converged
     c_bands:  1 eigenvalues not converged
     c_bands:  1 eigenvalues not converged
     c_bands:  1 eigenvalues not converged
     c_bands:  1 eigenvalues not converged
     c_bands:  1 eigenvalues not converged
     c_bands:  1 eigenvalues not converged
     c_bands:  2 eigenvalues not converged
     c_bands:  2 eigenvalues not converged
     c_bands:  1 eigenvalues not converged
     c_bands:  2 eigenvalues not converged
     c_bands:  1 eigenvalues not converged
     c_bands:  1 eigenvalues not converged
     ethr =  1.00E-06,  avg # of iterations = 18.1

     negative rho (up, down):  1.689E-04 0.000E+00

     total cpu time spent up to now is     7901.9 secs

     total energy              =    -216.36515837 Ry
     estimated scf accuracy    <       0.11718526 Ry

     iteration #  2     ecut=    60.00 Ry     beta= 0.30
     Davidson diagonalization with overlap
     ethr =  2.44E-04,  avg # of iterations =  1.7

     negative rho (up, down):  1.818E-05 0.000E+00

     total cpu time spent up to now is     7916.3 secs

     total energy              =    -216.35925167 Ry
     estimated scf accuracy    <       0.02986167 Ry

     iteration #  3     ecut=    60.00 Ry     beta= 0.30
     Davidson diagonalization with overlap
     ethr =  6.22E-05,  avg # of iterations =  3.1

     negative rho (up, down):  5.547E-07 0.000E+00

     total cpu time spent up to now is     7935.0 secs

     total energy              =    -216.36394485 Ry
     estimated scf accuracy    <       0.00455395 Ry

     iteration #  4     ecut=    60.00 Ry     beta= 0.30
     Davidson diagonalization with overlap
     ethr =  9.49E-06,  avg # of iterations =  7.7

     negative rho (up, down):  2.916E-07 0.000E+00

     total cpu time spent up to now is     7957.2 secs

     total energy              =    -216.36489986 Ry
     estimated scf accuracy    <       0.00530156 Ry

     iteration #  5     ecut=    60.00 Ry     beta= 0.30
     Davidson diagonalization with overlap
     ethr =  9.49E-06,  avg # of iterations =  5.2

     total cpu time spent up to now is     7973.9 secs

     total energy              =    -216.36532100 Ry
     estimated scf accuracy    <       0.00089930 Ry

     iteration #  6     ecut=    60.00 Ry     beta= 0.30
     Davidson diagonalization with overlap
     ethr =  1.87E-06,  avg # of iterations =  3.4

     total cpu time spent up to now is     7991.0 secs

     total energy              =    -216.36527372 Ry
     estimated scf accuracy    <       0.00093968 Ry

     iteration #  7     ecut=    60.00 Ry     beta= 0.30
     Davidson diagonalization with overlap
     ethr =  1.87E-06,  avg # of iterations =  5.7

     total cpu time spent up to now is     8008.3 secs

     total energy              =    -216.36535535 Ry
     estimated scf accuracy    <       0.00045016 Ry

     iteration #  8     ecut=    60.00 Ry     beta= 0.30
     Davidson diagonalization with overlap
     ethr =  9.38E-07,  avg # of iterations =  5.7

     total cpu time spent up to now is     8025.3 secs

     total energy              =    -216.36541996 Ry
     estimated scf accuracy    <       0.00016563 Ry

     iteration #  9     ecut=    60.00 Ry     beta= 0.30
     Davidson diagonalization with overlap
     ethr =  3.45E-07,  avg # of iterations =  2.4

     total cpu time spent up to now is     8040.1 secs

     total energy              =    -216.36542179 Ry
     estimated scf accuracy    <       0.00002607 Ry

     iteration # 10     ecut=    60.00 Ry     beta= 0.30
     Davidson diagonalization with overlap
     ethr =  5.43E-08,  avg # of iterations =  8.4

     total cpu time spent up to now is     8061.4 secs

     total energy              =    -216.36543427 Ry
     estimated scf accuracy    <       0.00011352 Ry

     iteration # 11     ecut=    60.00 Ry     beta= 0.30
     Davidson diagonalization with overlap
     ethr =  5.43E-08,  avg # of iterations =  2.7

     total cpu time spent up to now is     8076.4 secs

     total energy              =    -216.36542934 Ry
     estimated scf accuracy    <       0.00005845 Ry

     iteration # 12     ecut=    60.00 Ry     beta= 0.30
     Davidson diagonalization with overlap
     ethr =  5.43E-08,  avg # of iterations =  6.4

     total cpu time spent up to now is     8094.3 secs

     total energy              =    -216.36543492 Ry
     estimated scf accuracy    <       0.00000058 Ry

     iteration # 13     ecut=    60.00 Ry     beta= 0.30
     Davidson diagonalization with overlap
     ethr =  1.22E-09,  avg # of iterations =  5.1

     total cpu time spent up to now is     8113.0 secs

     total energy              =    -216.36543497 Ry
     estimated scf accuracy    <       0.00000150 Ry

     iteration # 14     ecut=    60.00 Ry     beta= 0.30
     Davidson diagonalization with overlap
     ethr =  1.22E-09,  avg # of iterations =  6.0

     total cpu time spent up to now is     8130.2 secs

     End of self-consistent calculation

     Number of k-points >= 100: set verbosity='high' to print the bands.

     highest occupied level (ev):     4.5294

!    total energy              =    -216.36543501 Ry
     estimated scf accuracy    <          8.1E-09 Ry

     The total energy is the sum of the following terms:
     one-electron contribution =     -89.80167631 Ry
     hartree contribution      =      71.20881343 Ry
     xc contribution           =     -49.10983725 Ry
     ewald contribution        =    -148.66273488 Ry

     convergence has been achieved in  14 iterations

     Forces acting on atoms (cartesian axes, Ry/au):

     atom    1 type  1   force =    -0.10327260   -0.01616491    0.08907955
     atom    2 type  1   force =     0.01663004   -0.06801915    0.08291452
     atom    3 type  1   force =     0.00420042   -0.06477060   -0.05287853
     atom    4 type  2   force =     0.07221865    0.09616368   -0.02384133
     atom    5 type  2   force =    -0.06343847    0.02231098   -0.00247958
     atom    6 type  2   force =     0.04119127    0.13989070   -0.01578811
     atom    7 type  2   force =     0.08290329   -0.01304143   -0.02390853
     atom    8 type  2   force =    -0.07634716   -0.01741773   -0.06738693
     atom    9 type  2   force =     0.02591457   -0.07895154    0.01428895

     Total force =     0.322678     Total SCF correction =     0.000077


     Computing stress (Cartesian axis) and pressure

          total   stress  (Ry/bohr**3)                   (kbar)     P=        4.71
   0.00042411  -0.00040189   0.00007786           62.39      -59.12       11.45
  -0.00040189   0.00010296  -0.00095857          -59.12       15.15     -141.01
   0.00007786  -0.00095857  -0.00043093           11.45     -141.01      -63.39

     Energy error            =      1.0E-01 Ry
     Gradient error          =      1.4E-01 Ry/Bohr
     Cell gradient error     =      1.4E+02 kbar

     number of scf cycles    =  17
     number of bfgs steps    =  15

     enthalpy           old  =    -216.2649981997 Ry
     enthalpy           new  =    -216.3654350108 Ry

     CASE: enthalpy          _new < enthalpy          _old

     new trust radius        =       0.3575879945 bohr
ibrav =      4
 celldm(1) =      9.08065457
 celldm(3) =      1.20123995
Input lattice vectors:
     0.97859331    -0.00898333     0.00072766
    -0.49707644     0.84362063    -0.00603252
     0.00038827    -0.00567380     1.17556148
New lattice vectors in INITIAL alat:
     0.97863481     0.00000000     0.00000000
    -0.48931741     0.84752261     0.00000000
     0.00000000     0.00000000     1.17557524
New lattice vectors in NEW alat (for information only):
     1.00000000     0.00000000     0.00000000
    -0.50000000     0.86602540     0.00000000
     0.00000000     0.00000000     1.20123995
Discrepancy in bohr =     0.009013    0.010574    0.005687
     new conv_thr            =       0.0000000100 Ry

     new unit-cell volume =    778.95410 a.u.^3 (   115.42909 Ang^3 )
     density =      2.59308 g/cm^3

CELL_PARAMETERS (alat=  9.27890000)
   0.978634814   0.000000000   0.000000000
  -0.489317407   0.847522610   0.000000000
   0.000000000   0.000000000   1.175575239

ATOMIC_POSITIONS (crystal)
Si               0.4553922376        0.4856967038       -0.0000716334
Si               0.4805513055        0.0345953686        0.3278766421
Si              -0.0000854786        0.5766698266        0.6685390470
O                0.3378633361        0.5694642528        0.7546722556
O                0.5494316429        0.7915292672        0.1893229278
O                0.1047886126        0.7835336349        0.4256653932
O                0.6764829737        0.3786948668        0.1505368992
O                0.6979723033        0.2189997324        0.5933812041
O                0.1109970669        0.1608683468        0.9898592644



     Writing config-only to output data dir ./tmp_quartz_ibrav4/quartz_ibrav4.save/ :
     XML data file
     NEW-OLD atomic charge density approx. for the potential
     New effective cutoffs (rho, wfc):  500.80   62.64

     negative rho (up, down):  5.764E-06 0.000E+00

     total cpu time spent up to now is     8137.5 secs

     Self-consistent Calculation

     iteration #  1     ecut=    60.00 Ry     beta= 0.30
     Davidson diagonalization with overlap
     c_bands:  1 eigenvalues not converged
     c_bands:  1 eigenvalues not converged
     c_bands:  1 eigenvalues not converged
     c_bands:  1 eigenvalues not converged
     c_bands:  2 eigenvalues not converged
     c_bands:  1 eigenvalues not converged
     c_bands:  1 eigenvalues not converged
     c_bands:  1 eigenvalues not converged
     c_bands:  1 eigenvalues not converged
     c_bands:  1 eigenvalues not converged
     c_bands:  1 eigenvalues not converged
     c_bands:  1 eigenvalues not converged
     c_bands:  1 eigenvalues not converged
     c_bands:  1 eigenvalues not converged
     c_bands:  1 eigenvalues not converged
     c_bands:  1 eigenvalues not converged
     c_bands:  1 eigenvalues not converged
     c_bands:  2 eigenvalues not converged
     c_bands:  1 eigenvalues not converged
     c_bands:  1 eigenvalues not converged
     c_bands:  1 eigenvalues not converged
     c_bands:  1 eigenvalues not converged
     c_bands:  1 eigenvalues not converged
     c_bands:  1 eigenvalues not converged
     c_bands:  1 eigenvalues not converged
     c_bands:  1 eigenvalues not converged
     c_bands:  1 eigenvalues not converged
     c_bands:  1 eigenvalues not converged
     c_bands:  2 eigenvalues not converged
     c_bands:  1 eigenvalues not converged
     c_bands:  1 eigenvalues not converged
     c_bands:  1 eigenvalues not converged
     c_bands:  1 eigenvalues not converged
     c_bands:  1 eigenvalues not converged
     c_bands:  1 eigenvalues not converged
     c_bands:  1 eigenvalues not converged
     c_bands:  1 eigenvalues not converged
     c_bands:  1 eigenvalues not converged
     c_bands:  1 eigenvalues not converged
     c_bands:  1 eigenvalues not converged
     c_bands:  1 eigenvalues not converged
     c_bands:  1 eigenvalues not converged
     c_bands:  1 eigenvalues not converged
     c_bands:  1 eigenvalues not converged
     c_bands:  1 eigenvalues not converged
     c_bands:  1 eigenvalues not converged
     c_bands:  1 eigenvalues not converged
     c_bands:  1 eigenvalues not converged
     c_bands:  1 eigenvalues not converged
     ethr =  1.00E-06,  avg # of iterations = 18.1

     negative rho (up, down):  3.551E-07 0.000E+00

     total cpu time spent up to now is     8216.2 secs

     total energy              =    -216.40680418 Ry
     estimated scf accuracy    <       0.07888125 Ry

     iteration #  2     ecut=    60.00 Ry     beta= 0.30
     Davidson diagonalization with overlap
     ethr =  1.64E-04,  avg # of iterations =  2.5

     total cpu time spent up to now is     8232.0 secs

     total energy              =    -216.40771150 Ry
     estimated scf accuracy    <       0.01851570 Ry

     iteration #  3     ecut=    60.00 Ry     beta= 0.30
     Davidson diagonalization with overlap
     ethr =  3.86E-05,  avg # of iterations =  2.2

     total cpu time spent up to now is     8250.3 secs

     total energy              =    -216.40939058 Ry
     estimated scf accuracy    <       0.00404915 Ry

     iteration #  4     ecut=    60.00 Ry     beta= 0.30
     Davidson diagonalization with overlap
     ethr =  8.44E-06,  avg # of iterations =  7.1

     total cpu time spent up to now is     8271.6 secs

     total energy              =    -216.41014374 Ry
     estimated scf accuracy    <       0.00293210 Ry

     iteration #  5     ecut=    60.00 Ry     beta= 0.30
     Davidson diagonalization with overlap
     ethr =  6.11E-06,  avg # of iterations =  7.9

     total cpu time spent up to now is     8291.5 secs

     total energy              =    -216.40962321 Ry
     estimated scf accuracy    <       0.02201424 Ry

     iteration #  6     ecut=    60.00 Ry     beta= 0.30
     Davidson diagonalization with overlap
     ethr =  6.11E-06,  avg # of iterations =  7.6

     total cpu time spent up to now is     8310.1 secs

     total energy              =    -216.41089162 Ry
     estimated scf accuracy    <       0.00025647 Ry

     iteration #  7     ecut=    60.00 Ry     beta= 0.30
     Davidson diagonalization with overlap
     ethr =  5.34E-07,  avg # of iterations =  8.4

     total cpu time spent up to now is     8332.2 secs

     total energy              =    -216.41085671 Ry
     estimated scf accuracy    <       0.00101911 Ry

     iteration #  8     ecut=    60.00 Ry     beta= 0.30
     Davidson diagonalization with overlap
     ethr =  5.34E-07,  avg # of iterations =  7.4

     total cpu time spent up to now is     8351.5 secs

     total energy              =    -216.41094366 Ry
     estimated scf accuracy    <       0.00011912 Ry

     iteration #  9     ecut=    60.00 Ry     beta= 0.30
     Davidson diagonalization with overlap
     ethr =  2.48E-07,  avg # of iterations =  3.2

     total cpu time spent up to now is     8366.6 secs

     total energy              =    -216.41094994 Ry
     estimated scf accuracy    <       0.00000637 Ry

     iteration # 10     ecut=    60.00 Ry     beta= 0.30
     Davidson diagonalization with overlap
     c_bands:  1 eigenvalues not converged
     c_bands:  1 eigenvalues not converged
     c_bands:  1 eigenvalues not converged
     c_bands:  1 eigenvalues not converged
     ethr =  1.33E-08,  avg # of iterations = 11.3

     total cpu time spent up to now is     8393.1 secs

     total energy              =    -216.41095397 Ry
     estimated scf accuracy    <       0.00011315 Ry

     iteration # 11     ecut=    60.00 Ry     beta= 0.30
     Davidson diagonalization with overlap
     ethr =  1.33E-08,  avg # of iterations =  7.1

     total cpu time spent up to now is     8411.6 secs

     total energy              =    -216.41095623 Ry
     estimated scf accuracy    <       0.00001219 Ry

     iteration # 12     ecut=    60.00 Ry     beta= 0.30
     Davidson diagonalization with overlap
     ethr =  1.33E-08,  avg # of iterations =  1.1

     total cpu time spent up to now is     8425.3 secs

     total energy              =    -216.41095569 Ry
     estimated scf accuracy    <       0.00000958 Ry

     iteration # 13     ecut=    60.00 Ry     beta= 0.30
     Davidson diagonalization with overlap
     ethr =  1.33E-08,  avg # of iterations =  3.5

     total cpu time spent up to now is     8440.4 secs

     total energy              =    -216.41095618 Ry
     estimated scf accuracy    <       0.00000054 Ry

     iteration # 14     ecut=    60.00 Ry     beta= 0.30
     Davidson diagonalization with overlap
     ethr =  1.13E-09,  avg # of iterations =  6.0

     total cpu time spent up to now is     8458.8 secs

     total energy              =    -216.41095643 Ry
     estimated scf accuracy    <       0.00000010 Ry

     iteration # 15     ecut=    60.00 Ry     beta= 0.30
     Davidson diagonalization with overlap
     ethr =  2.15E-10,  avg # of iterations =  1.8

     total cpu time spent up to now is     8473.1 secs

     total energy              =    -216.41095642 Ry
     estimated scf accuracy    <       0.00000013 Ry

     iteration # 16     ecut=    60.00 Ry     beta= 0.30
     Davidson diagonalization with overlap
     ethr =  2.15E-10,  avg # of iterations =  1.1

     total cpu time spent up to now is     8487.0 secs

     total energy              =    -216.41095642 Ry
     estimated scf accuracy    <       0.00000010 Ry

     iteration # 17     ecut=    60.00 Ry     beta= 0.30
     Davidson diagonalization with overlap
     ethr =  2.10E-10,  avg # of iterations =  3.0

     total cpu time spent up to now is     8501.8 secs

     End of self-consistent calculation

     Number of k-points >= 100: set verbosity='high' to print the bands.

     highest occupied level (ev):     3.9370

!    total energy              =    -216.41095642 Ry
     estimated scf accuracy    <          3.3E-09 Ry

     The total energy is the sum of the following terms:
     one-electron contribution =     -96.57066213 Ry
     hartree contribution      =      73.41868493 Ry
     xc contribution           =     -48.90296181 Ry
     ewald contribution        =    -144.35601742 Ry

     convergence has been achieved in  17 iterations

     Forces acting on atoms (cartesian axes, Ry/au):

     atom    1 type  1   force =    -0.06179073    0.00273160    0.10030262
     atom    2 type  1   force =     0.02563776    0.07847497    0.00418684
     atom    3 type  1   force =     0.08325671   -0.04038369   -0.04293611
     atom    4 type  2   force =    -0.04547792    0.09416691   -0.07724144
     atom    5 type  2   force =    -0.01098210   -0.03937513   -0.03515210
     atom    6 type  2   force =     0.00458358    0.06641615    0.03051471
     atom    7 type  2   force =     0.02107257   -0.06977565    0.02110227
     atom    8 type  2   force =    -0.01936348   -0.00402505   -0.04151785
     atom    9 type  2   force =     0.00306360   -0.08823011    0.04074105

     Total force =     0.271337     Total SCF correction =     0.000065


     Computing stress (Cartesian axis) and pressure

          total   stress  (Ry/bohr**3)                   (kbar)     P=      -61.79
  -0.00016654  -0.00032395  -0.00020853          -24.50      -47.65      -30.68
  -0.00032395  -0.00037547  -0.00049754          -47.65      -55.23      -73.19
  -0.00020853  -0.00049754  -0.00071804          -30.68      -73.19     -105.63

     Energy error            =      4.6E-02 Ry
     Gradient error          =      1.0E-01 Ry/Bohr
     Cell gradient error     =      1.1E+02 kbar

     number of scf cycles    =  18
     number of bfgs steps    =  16

     enthalpy           old  =    -216.3654350108 Ry
     enthalpy           new  =    -216.4109564246 Ry

     CASE: enthalpy          _new < enthalpy          _old

     new trust radius        =       0.2166401416 bohr
ibrav =      4
 celldm(1) =      9.03008453
 celldm(3) =      1.19171702
Input lattice vectors:
     0.97314175    -0.00413764    -0.00816593
    -0.49015418     0.83843148    -0.01080700
    -0.00863470    -0.01708627     1.15960289
New lattice vectors in INITIAL alat:
     0.97318481     0.00000000     0.00000000
    -0.48659240     0.84280277     0.00000000
     0.00000000     0.00000000     1.15976090
New lattice vectors in NEW alat (for information only):
     1.00000000     0.00000000     0.00000000
    -0.50000000     0.86602540     0.00000000
     0.00000000     0.00000000     1.19171702
Discrepancy in bohr =     0.009154    0.012190    0.019145
     new conv_thr            =       0.0000000100 Ry

     new unit-cell volume =    759.93986 a.u.^3 (   112.61147 Ang^3 )
     density =      2.65796 g/cm^3

CELL_PARAMETERS (alat=  9.27890000)
   0.973184810   0.000000000   0.000000000
  -0.486592405   0.842802768   0.000000000
   0.000000000   0.000000000   1.159760904

ATOMIC_POSITIONS (crystal)
Si               0.4325802629        0.4718913370        0.0077177517
Si               0.4903523780        0.0377865952        0.3291544926
Si               0.0172257022        0.5805384951        0.6605814978
O                0.3458532509        0.5799183930        0.7432719076
O                0.5458601128        0.7848704400        0.1910282382
O                0.1110529060        0.8076251114        0.4206012085
O                0.6726954475        0.3618542646        0.1489820365
O                0.7061759034        0.2228860180        0.5945406549
O                0.0915980362        0.1526813458        1.0039042122



     Writing config-only to output data dir ./tmp_quartz_ibrav4/quartz_ibrav4.save/ :
     XML data file
     NEW-OLD atomic charge density approx. for the potential
     New effective cutoffs (rho, wfc):  506.43   63.34

     negative rho (up, down):  1.292E-06 0.000E+00

     total cpu time spent up to now is     8509.1 secs

     Self-consistent Calculation

     iteration #  1     ecut=    60.00 Ry     beta= 0.30
     Davidson diagonalization with overlap
     c_bands:  2 eigenvalues not converged
     c_bands:  3 eigenvalues not converged
     c_bands:  1 eigenvalues not converged
     c_bands:  2 eigenvalues not converged
     c_bands:  2 eigenvalues not converged
     c_bands:  1 eigenvalues not converged
     c_bands:  1 eigenvalues not converged
     c_bands:  2 eigenvalues not converged
     c_bands:  2 eigenvalues not converged
     c_bands:  2 eigenvalues not converged
     c_bands:  2 eigenvalues not converged
     c_bands:  2 eigenvalues not converged
     c_bands:  2 eigenvalues not converged
     c_bands:  2 eigenvalues not converged
     c_bands:  1 eigenvalues not converged
     c_bands:  2 eigenvalues not converged
     c_bands:  1 eigenvalues not converged
     c_bands:  1 eigenvalues not converged
     c_bands:  1 eigenvalues not converged
     c_bands:  1 eigenvalues not converged
     c_bands:  2 eigenvalues not converged
     c_bands:  3 eigenvalues not converged
     c_bands:  2 eigenvalues not converged
     c_bands:  1 eigenvalues not converged
     c_bands:  1 eigenvalues not converged
     c_bands:  1 eigenvalues not converged
     c_bands:  1 eigenvalues not converged
     c_bands:  2 eigenvalues not converged
     c_bands:  1 eigenvalues not converged
     c_bands:  2 eigenvalues not converged
     c_bands:  2 eigenvalues not converged
     c_bands:  1 eigenvalues not converged
     c_bands:  1 eigenvalues not converged
     c_bands:  1 eigenvalues not converged
     c_bands:  2 eigenvalues not converged
     c_bands:  1 eigenvalues not converged
     c_bands:  1 eigenvalues not converged
     c_bands:  1 eigenvalues not converged
     c_bands:  1 eigenvalues not converged
     c_bands:  1 eigenvalues not converged
     c_bands:  1 eigenvalues not converged
     ethr =  1.00E-06,  avg # of iterations = 17.0

     total cpu time spent up to now is     8578.1 secs

     total energy              =    -216.47755657 Ry
     estimated scf accuracy    <       0.06255943 Ry

     iteration #  2     ecut=    60.00 Ry     beta= 0.30
     Davidson diagonalization with overlap
     ethr =  1.30E-04,  avg # of iterations =  7.3

     total cpu time spent up to now is     8597.5 secs

     total energy              =    -216.47812628 Ry
     estimated scf accuracy    <       0.07312143 Ry

     iteration #  3     ecut=    60.00 Ry     beta= 0.30
     Davidson diagonalization with overlap
     ethr =  1.30E-04,  avg # of iterations =  6.0

     total cpu time spent up to now is     8614.8 secs

     total energy              =    -216.48651926 Ry
     estimated scf accuracy    <       0.00914303 Ry

     iteration #  4     ecut=    60.00 Ry     beta= 0.30
     Davidson diagonalization with overlap
     ethr =  1.90E-05,  avg # of iterations =  3.8

     total cpu time spent up to now is     8630.6 secs

     total energy              =    -216.48715758 Ry
     estimated scf accuracy    <       0.00126150 Ry

     iteration #  5     ecut=    60.00 Ry     beta= 0.30
     Davidson diagonalization with overlap
     ethr =  2.63E-06,  avg # of iterations =  6.4

     total cpu time spent up to now is     8650.9 secs

     total energy              =    -216.48745655 Ry
     estimated scf accuracy    <       0.00083516 Ry

     iteration #  6     ecut=    60.00 Ry     beta= 0.30
     Davidson diagonalization with overlap
     ethr =  1.74E-06,  avg # of iterations =  5.7

     total cpu time spent up to now is     8667.8 secs

     total energy              =    -216.48757600 Ry
     estimated scf accuracy    <       0.00003213 Ry

     iteration #  7     ecut=    60.00 Ry     beta= 0.30
     Davidson diagonalization with overlap
     ethr =  6.69E-08,  avg # of iterations =  6.1

     total cpu time spent up to now is     8689.1 secs

     total energy              =    -216.48758371 Ry
     estimated scf accuracy    <       0.00001452 Ry

     iteration #  8     ecut=    60.00 Ry     beta= 0.30
     Davidson diagonalization with overlap
     ethr =  3.03E-08,  avg # of iterations =  5.6

     total cpu time spent up to now is     8706.7 secs

     total energy              =    -216.48758657 Ry
     estimated scf accuracy    <       0.00000180 Ry

     iteration #  9     ecut=    60.00 Ry     beta= 0.30
     Davidson diagonalization with overlap
     ethr =  3.76E-09,  avg # of iterations =  7.1

     total cpu time spent up to now is     8728.4 secs

     total energy              =    -216.48758734 Ry
     estimated scf accuracy    <       0.00000073 Ry

     iteration # 10     ecut=    60.00 Ry     beta= 0.30
     Davidson diagonalization with overlap
     ethr =  1.52E-09,  avg # of iterations =  4.7

     total cpu time spent up to now is     8745.1 secs

     total energy              =    -216.48758748 Ry
     estimated scf accuracy    <       0.00000003 Ry

     iteration # 11     ecut=    60.00 Ry     beta= 0.30
     Davidson diagonalization with overlap
     ethr =  5.56E-11,  avg # of iterations =  6.9

     total cpu time spent up to now is     8771.9 secs

     total energy              =    -216.48758756 Ry
     estimated scf accuracy    <       0.00000003 Ry

     iteration # 12     ecut=    60.00 Ry     beta= 0.30
     Davidson diagonalization with overlap
     ethr =  5.56E-11,  avg # of iterations =  3.4

     total cpu time spent up to now is     8787.8 secs

     End of self-consistent calculation

     Number of k-points >= 100: set verbosity='high' to print the bands.

     highest occupied level (ev):     4.1668

!    total energy              =    -216.48758755 Ry
     estimated scf accuracy    <          7.0E-09 Ry

     The total energy is the sum of the following terms:
     one-electron contribution =     -93.78010494 Ry
     hartree contribution      =      72.46124561 Ry
     xc contribution           =     -49.03480340 Ry
     ewald contribution        =    -146.13392481 Ry

     convergence has been achieved in  12 iterations

     Forces acting on atoms (cartesian axes, Ry/au):

     atom    1 type  1   force =    -0.03273402    0.00519011    0.07530723
     atom    2 type  1   force =     0.01821923    0.08139089   -0.00039917
     atom    3 type  1   force =     0.05471401   -0.03674621   -0.07070567
     atom    4 type  2   force =     0.00448973    0.06683464   -0.01602632
     atom    5 type  2   force =    -0.00351548   -0.06121176   -0.03070627
     atom    6 type  2   force =    -0.01118938    0.02509478    0.06589390
     atom    7 type  2   force =    -0.01702902   -0.01635092   -0.01714341
     atom    8 type  2   force =    -0.01361138    0.01315356   -0.02912699
     atom    9 type  2   force =     0.00065632   -0.07735508    0.02290670

     Total force =     0.214893     Total SCF correction =     0.000120


     Computing stress (Cartesian axis) and pressure

          total   stress  (Ry/bohr**3)                   (kbar)     P=      -47.68
   0.00004061  -0.00016755  -0.00038237            5.97      -24.65      -56.25
  -0.00016755  -0.00023548  -0.00046871          -24.65      -34.64      -68.95
  -0.00038237  -0.00046871  -0.00077742          -56.25      -68.95     -114.36

     Energy error            =      7.7E-02 Ry
     Gradient error          =      8.1E-02 Ry/Bohr
     Cell gradient error     =      1.1E+02 kbar

     number of scf cycles    =  19
     number of bfgs steps    =  17

     enthalpy           old  =    -216.4109564246 Ry
     enthalpy           new  =    -216.4875875521 Ry

     CASE: enthalpy          _new < enthalpy          _old

     new trust radius        =       0.3218719060 bohr
ibrav =      4
 celldm(1) =      9.01886922
 celldm(3) =      1.14886482
Input lattice vectors:
     0.97191735    -0.00173267    -0.01054720
    -0.48745921     0.83738494     0.00119330
    -0.01075024    -0.00503918     1.11660605
New lattice vectors in INITIAL alat:
     0.97197612     0.00000000     0.00000000
    -0.48598806     0.84175601     0.00000000
     0.00000000     0.00000000     1.11666917
New lattice vectors in NEW alat (for information only):
     1.00000000     0.00000000     0.00000000
    -0.50000000     0.86602540     0.00000000
     0.00000000     0.00000000     1.14886482
Discrepancy in bohr =     0.010689    0.004764    0.011873
     new conv_thr            =       0.0000000081 Ry

     new unit-cell volume =    729.88734 a.u.^3 (   108.15814 Ang^3 )
     density =      2.76740 g/cm^3

CELL_PARAMETERS (alat=  9.27890000)
   0.971976120   0.000000000   0.000000000
  -0.485988060   0.841756011   0.000000000
   0.000000000   0.000000000   1.116669169

ATOMIC_POSITIONS (crystal)
Si               0.3993880190        0.4483637734        0.0180241736
Si               0.5064945823        0.0448666436        0.3302401781
Si               0.0426883317        0.5786149000        0.6405564877
O                0.3635245914        0.5936655257        0.7309263524
O                0.5393856323        0.7726352235        0.1940230056
O                0.1207570200        0.8449199033        0.4211262565
O                0.6666388354        0.3436226070        0.1494098335
O                0.7144075614        0.2371478640        0.5957728687
O                0.0601094265        0.1362155594        1.0197028440



     Writing config-only to output data dir ./tmp_quartz_ibrav4/quartz_ibrav4.save/ :
     XML data file
     NEW-OLD atomic charge density approx. for the potential
     New effective cutoffs (rho, wfc):  507.72   63.50

     negative rho (up, down):  7.590E-05 0.000E+00

     total cpu time spent up to now is     8795.3 secs

     Self-consistent Calculation

     iteration #  1     ecut=    60.00 Ry     beta= 0.30
     Davidson diagonalization with overlap
     c_bands:  1 eigenvalues not converged
     c_bands:  1 eigenvalues not converged
     c_bands:  1 eigenvalues not converged
     c_bands:  1 eigenvalues not converged
     c_bands:  1 eigenvalues not converged
     c_bands:  1 eigenvalues not converged
     c_bands:  1 eigenvalues not converged
     ethr =  1.00E-06,  avg # of iterations = 16.9

     negative rho (up, down):  1.863E-05 0.000E+00

     total cpu time spent up to now is     8868.7 secs

     total energy              =    -216.55289839 Ry
     estimated scf accuracy    <       0.05155445 Ry

     iteration #  2     ecut=    60.00 Ry     beta= 0.30
     Davidson diagonalization with overlap
     ethr =  1.07E-04,  avg # of iterations =  2.3

     negative rho (up, down):  2.130E-07 0.000E+00

     total cpu time spent up to now is     8883.9 secs

     total energy              =    -216.55264775 Ry
     estimated scf accuracy    <       0.01279720 Ry

     iteration #  3     ecut=    60.00 Ry     beta= 0.30
     Davidson diagonalization with overlap
     ethr =  2.67E-05,  avg # of iterations =  3.6

     total cpu time spent up to now is     8902.0 secs

     total energy              =    -216.55336616 Ry
     estimated scf accuracy    <       0.00332448 Ry

     iteration #  4     ecut=    60.00 Ry     beta= 0.30
     Davidson diagonalization with overlap
     ethr =  6.93E-06,  avg # of iterations =  5.6

     total cpu time spent up to now is     8923.3 secs

     total energy              =    -216.55382512 Ry
     estimated scf accuracy    <       0.00273275 Ry

     iteration #  5     ecut=    60.00 Ry     beta= 0.30
     Davidson diagonalization with overlap
     ethr =  5.69E-06,  avg # of iterations =  4.4

     total cpu time spent up to now is     8940.2 secs

     total energy              =    -216.55417017 Ry
     estimated scf accuracy    <       0.00018614 Ry

     iteration #  6     ecut=    60.00 Ry     beta= 0.30
     Davidson diagonalization with overlap
     ethr =  3.88E-07,  avg # of iterations =  5.6

     total cpu time spent up to now is     8960.4 secs

     total energy              =    -216.55420194 Ry
     estimated scf accuracy    <       0.00008563 Ry

     iteration #  7     ecut=    60.00 Ry     beta= 0.30
     Davidson diagonalization with overlap
     ethr =  1.78E-07,  avg # of iterations =  4.8

     total cpu time spent up to now is     8977.2 secs

     total energy              =    -216.55421476 Ry
     estimated scf accuracy    <       0.00000694 Ry

     iteration #  8     ecut=    60.00 Ry     beta= 0.30
     Davidson diagonalization with overlap
     ethr =  1.45E-08,  avg # of iterations =  4.0

     total cpu time spent up to now is     8997.0 secs

     total energy              =    -216.55421613 Ry
     estimated scf accuracy    <       0.00000301 Ry

     iteration #  9     ecut=    60.00 Ry     beta= 0.30
     Davidson diagonalization with overlap
     ethr =  6.28E-09,  avg # of iterations =  4.5

     total cpu time spent up to now is     9015.0 secs

     total energy              =    -216.55421696 Ry
     estimated scf accuracy    <       0.00000011 Ry

     iteration # 10     ecut=    60.00 Ry     beta= 0.30
     Davidson diagonalization with overlap
     ethr =  2.32E-10,  avg # of iterations =  5.8

     total cpu time spent up to now is     9039.4 secs

     total energy              =    -216.55421714 Ry
     estimated scf accuracy    <       0.00000010 Ry

     iteration # 11     ecut=    60.00 Ry     beta= 0.30
     Davidson diagonalization with overlap
     ethr =  2.13E-10,  avg # of iterations =  3.4

     total cpu time spent up to now is     9059.9 secs

     total energy              =    -216.55421725 Ry
     estimated scf accuracy    <       0.00000002 Ry

     iteration # 12     ecut=    60.00 Ry     beta= 0.30
     Davidson diagonalization with overlap
     ethr =  4.13E-11,  avg # of iterations =  4.1

     total cpu time spent up to now is     9080.0 secs

     End of self-consistent calculation

     Number of k-points >= 100: set verbosity='high' to print the bands.

     highest occupied level (ev):     4.5003

!    total energy              =    -216.55421724 Ry
     estimated scf accuracy    <          2.5E-09 Ry

     The total energy is the sum of the following terms:
     one-electron contribution =     -89.83183710 Ry
     hartree contribution      =      71.14882264 Ry
     xc contribution           =     -49.25388031 Ry
     ewald contribution        =    -148.61732247 Ry

     convergence has been achieved in  12 iterations

     Forces acting on atoms (cartesian axes, Ry/au):

     atom    1 type  1   force =     0.01838581    0.01376522    0.04826169
     atom    2 type  1   force =     0.00794183    0.01842207    0.02294343
     atom    3 type  1   force =    -0.01745831   -0.02030555   -0.07202607
     atom    4 type  2   force =     0.04972767    0.02335121    0.03656008
     atom    5 type  2   force =    -0.01411976   -0.07415353   -0.00730505
     atom    6 type  2   force =    -0.00138271   -0.00828000    0.07660496
     atom    7 type  2   force =    -0.06465216    0.06566457   -0.08769146
     atom    8 type  2   force =     0.00318713    0.00769671   -0.00911557
     atom    9 type  2   force =     0.01837050   -0.02616070   -0.00823200

     Total force =     0.207748     Total SCF correction =     0.000111


     Computing stress (Cartesian axis) and pressure

          total   stress  (Ry/bohr**3)                   (kbar)     P=        4.44
   0.00030145  -0.00005207  -0.00033523           44.35       -7.66      -49.31
  -0.00005207   0.00013580  -0.00047528           -7.66       19.98      -69.92
  -0.00033523  -0.00047528  -0.00034672          -49.31      -69.92      -51.00

     Energy error            =      6.7E-02 Ry
     Gradient error          =      8.8E-02 Ry/Bohr
     Cell gradient error     =      7.0E+01 kbar

     number of scf cycles    =  20
     number of bfgs steps    =  18

     enthalpy           old  =    -216.4875875521 Ry
     enthalpy           new  =    -216.5542172387 Ry

     CASE: enthalpy          _new < enthalpy          _old

     new trust radius        =       0.1607549579 bohr
ibrav =      4
 celldm(1) =      9.09181438
 celldm(3) =      1.11617711
Input lattice vectors:
     0.97980019    -0.00391718    -0.00760297
    -0.49329247     0.85152713    -0.00247809
    -0.00797537    -0.00811890     1.09361300
New lattice vectors in INITIAL alat:
     0.97983752     0.00000000     0.00000000
    -0.48991876     0.84856419     0.00000000
     0.00000000     0.00000000     1.09367221
New lattice vectors in NEW alat (for information only):
     1.00000000     0.00000000     0.00000000
    -0.50000000     0.86602540     0.00000000
     0.00000000     0.00000000     1.11617711
Discrepancy in bohr =     0.008553    0.005129    0.011381
     new conv_thr            =       0.0000000088 Ry

     new unit-cell volume =    726.46622 a.u.^3 (   107.65119 Ang^3 )
     density =      2.78043 g/cm^3

CELL_PARAMETERS (alat=  9.27890000)
   0.979837522   0.000000000   0.000000000
  -0.489918761   0.848564186   0.000000000
   0.000000000   0.000000000   1.093672213

ATOMIC_POSITIONS (crystal)
Si               0.3886405106        0.4402051330        0.0254493062
Si               0.5107316405        0.0460622237        0.3321729526
Si               0.0457814257        0.5686846206        0.6289171062
O                0.3748882747        0.5977405822        0.7286000631
O                0.5320100312        0.7671899775        0.1949064178
O                0.1286767954        0.8576978100        0.4288440095
O                0.6652553928        0.3448183276        0.1455182739
O                0.7113205620        0.2445623109        0.5935317066
O                0.0560893671        0.1330910144        1.0218421642



     Writing config-only to output data dir ./tmp_quartz_ibrav4/quartz_ibrav4.save/ :
     XML data file
     NEW-OLD atomic charge density approx. for the potential
     New effective cutoffs (rho, wfc):  499.67   62.49

     negative rho (up, down):  2.507E-06 0.000E+00

     total cpu time spent up to now is     9087.2 secs

     Self-consistent Calculation

     iteration #  1     ecut=    60.00 Ry     beta= 0.30
     Davidson diagonalization with overlap
     ethr =  1.00E-06,  avg # of iterations = 12.2

     total cpu time spent up to now is     9145.2 secs

     total energy              =    -216.58146271 Ry
     estimated scf accuracy    <       0.01024909 Ry

     iteration #  2     ecut=    60.00 Ry     beta= 0.30
     Davidson diagonalization with overlap
     ethr =  2.14E-05,  avg # of iterations =  2.0

     total cpu time spent up to now is     9160.3 secs

     total energy              =    -216.58112463 Ry
     estimated scf accuracy    <       0.00264350 Ry

     iteration #  3     ecut=    60.00 Ry     beta= 0.30
     Davidson diagonalization with overlap
     ethr =  5.51E-06,  avg # of iterations =  3.5

     total cpu time spent up to now is     9179.5 secs

     total energy              =    -216.58148515 Ry
     estimated scf accuracy    <       0.00052142 Ry

     iteration #  4     ecut=    60.00 Ry     beta= 0.30
     Davidson diagonalization with overlap
     ethr =  1.09E-06,  avg # of iterations =  4.5

     total cpu time spent up to now is     9198.4 secs

     total energy              =    -216.58157381 Ry
     estimated scf accuracy    <       0.00019772 Ry

     iteration #  5     ecut=    60.00 Ry     beta= 0.30
     Davidson diagonalization with overlap
     ethr =  4.12E-07,  avg # of iterations =  4.1

     total cpu time spent up to now is     9215.5 secs

     total energy              =    -216.58160180 Ry
     estimated scf accuracy    <       0.00003546 Ry

     iteration #  6     ecut=    60.00 Ry     beta= 0.30
     Davidson diagonalization with overlap
     ethr =  7.39E-08,  avg # of iterations =  2.1

     total cpu time spent up to now is     9233.3 secs

     total energy              =    -216.58160736 Ry
     estimated scf accuracy    <       0.00000334 Ry

     iteration #  7     ecut=    60.00 Ry     beta= 0.30
     Davidson diagonalization with overlap
     ethr =  6.95E-09,  avg # of iterations =  3.8

     total cpu time spent up to now is     9252.0 secs

     total energy              =    -216.58160846 Ry
     estimated scf accuracy    <       0.00000052 Ry

     iteration #  8     ecut=    60.00 Ry     beta= 0.30
     Davidson diagonalization with overlap
     ethr =  1.09E-09,  avg # of iterations =  3.1

     total cpu time spent up to now is     9271.6 secs

     total energy              =    -216.58160881 Ry
     estimated scf accuracy    <       0.00000012 Ry

     iteration #  9     ecut=    60.00 Ry     beta= 0.30
     Davidson diagonalization with overlap
     ethr =  2.49E-10,  avg # of iterations =  5.4

     total cpu time spent up to now is     9295.0 secs

     total energy              =    -216.58160896 Ry
     estimated scf accuracy    <       0.00000008 Ry

     iteration # 10     ecut=    60.00 Ry     beta= 0.30
     Davidson diagonalization with overlap
     ethr =  1.62E-10,  avg # of iterations =  2.1

     total cpu time spent up to now is     9311.2 secs

     total energy              =    -216.58160901 Ry
     estimated scf accuracy    <       0.00000001 Ry

     iteration # 11     ecut=    60.00 Ry     beta= 0.30
     Davidson diagonalization with overlap
     ethr =  2.11E-11,  avg # of iterations =  6.0

     total cpu time spent up to now is     9338.3 secs

     total energy              =    -216.58160902 Ry
     estimated scf accuracy    <       0.00000001 Ry

     iteration # 12     ecut=    60.00 Ry     beta= 0.30
     Davidson diagonalization with overlap
     ethr =  2.11E-11,  avg # of iterations =  2.3

     total cpu time spent up to now is     9355.4 secs

     End of self-consistent calculation

     Number of k-points >= 100: set verbosity='high' to print the bands.

     highest occupied level (ev):     4.5287

!    total energy              =    -216.58160905 Ry
     estimated scf accuracy    <          2.1E-09 Ry

     The total energy is the sum of the following terms:
     one-electron contribution =     -89.21816400 Ry
     hartree contribution      =      70.87354476 Ry
     xc contribution           =     -49.29227457 Ry
     ewald contribution        =    -148.94471524 Ry

     convergence has been achieved in  12 iterations

     Forces acting on atoms (cartesian axes, Ry/au):

     atom    1 type  1   force =     0.03630203    0.02900440    0.01217021
     atom    2 type  1   force =     0.00111649    0.01492320   -0.00826593
     atom    3 type  1   force =     0.02881499    0.00592844   -0.03421670
     atom    4 type  2   force =    -0.00009098    0.00434137    0.02279984
     atom    5 type  2   force =    -0.01886109   -0.05277156    0.01135053
     atom    6 type  2   force =    -0.00271870   -0.01945098    0.06439398
     atom    7 type  2   force =    -0.06644509    0.04481455   -0.07467412
     atom    8 type  2   force =     0.01755869   -0.00019128    0.00871986
     atom    9 type  2   force =     0.00432365   -0.02659815   -0.00227766

     Total force =     0.161528     Total SCF correction =     0.000075


     Computing stress (Cartesian axis) and pressure

          total   stress  (Ry/bohr**3)                   (kbar)     P=       10.45
   0.00014951  -0.00000221  -0.00029824           21.99       -0.33      -43.87
  -0.00000221   0.00021500  -0.00030144           -0.33       31.63      -44.34
  -0.00029824  -0.00030144  -0.00015146          -43.87      -44.34      -22.28

     Energy error            =      2.7E-02 Ry
     Gradient error          =      7.5E-02 Ry/Bohr
     Cell gradient error     =      4.4E+01 kbar

     number of scf cycles    =  21
     number of bfgs steps    =  19

     enthalpy           old  =    -216.5542172387 Ry
     enthalpy           new  =    -216.5816090507 Ry

     CASE: enthalpy          _new < enthalpy          _old

     new trust radius        =       0.1989025479 bohr
ibrav =      4
 celldm(1) =      9.14898407
 celldm(3) =      1.08279432
Input lattice vectors:
     0.98599012    -0.00236064    -0.00339157
    -0.49503943     0.85741295    -0.00436621
    -0.00405422    -0.00743461     1.06760029
New lattice vectors in INITIAL alat:
     0.98599878     0.00000000     0.00000000
    -0.49299939     0.85389999     0.00000000
     0.00000000     0.00000000     1.06763387
New lattice vectors in NEW alat (for information only):
     1.00000000     0.00000000     0.00000000
    -0.50000000     0.86602540     0.00000000
     0.00000000     0.00000000     1.08279432
Discrepancy in bohr =     0.004132    0.005964    0.008468
     new conv_thr            =       0.0000000075 Ry

     new unit-cell volume =    718.11701 a.u.^3 (   106.41396 Ang^3 )
     density =      2.81276 g/cm^3

CELL_PARAMETERS (alat=  9.27890000)
   0.985998779   0.000000000   0.000000000
  -0.492999390   0.853899991   0.000000000
   0.000000000   0.000000000   1.067633875

ATOMIC_POSITIONS (crystal)
Si               0.3797025305        0.4331937887        0.0286988017
Si               0.5179533947        0.0504774880        0.3302520124
Si               0.0589851582        0.5656794861        0.6145948100
O                0.3830031735        0.6006353933        0.7269045946
O                0.5178908510        0.7516508241        0.1999003344
O                0.1345547637        0.8709042094        0.4417865424
O                0.6566699446        0.3489306564        0.1360395661
O                0.7170950312        0.2512337810        0.5955348833
O                0.0475391527        0.1273463729        1.0260704550



     Writing config-only to output data dir ./tmp_quartz_ibrav4/quartz_ibrav4.save/ :
     XML data file
     NEW-OLD atomic charge density approx. for the potential
     New effective cutoffs (rho, wfc):  512.82   64.32

     negative rho (up, down):  4.458E-06 0.000E+00

     total cpu time spent up to now is     9362.8 secs

     Self-consistent Calculation

     iteration #  1     ecut=    60.00 Ry     beta= 0.30
     Davidson diagonalization with overlap
     ethr =  1.00E-06,  avg # of iterations = 11.6

     total cpu time spent up to now is     9423.2 secs

     total energy              =    -216.61027865 Ry
     estimated scf accuracy    <       0.01708197 Ry

     iteration #  2     ecut=    60.00 Ry     beta= 0.30
     Davidson diagonalization with overlap
     ethr =  3.56E-05,  avg # of iterations =  1.7

     total cpu time spent up to now is     9437.6 secs

     total energy              =    -216.60918843 Ry
     estimated scf accuracy    <       0.00460764 Ry

     iteration #  3     ecut=    60.00 Ry     beta= 0.30
     Davidson diagonalization with overlap
     ethr =  9.60E-06,  avg # of iterations =  2.0

     total cpu time spent up to now is     9455.6 secs

     total energy              =    -216.60995432 Ry
     estimated scf accuracy    <       0.00042459 Ry

     iteration #  4     ecut=    60.00 Ry     beta= 0.30
     Davidson diagonalization with overlap
     ethr =  8.85E-07,  avg # of iterations =  2.4

     total cpu time spent up to now is     9473.1 secs

     total energy              =    -216.61000331 Ry
     estimated scf accuracy    <       0.00007952 Ry

     iteration #  5     ecut=    60.00 Ry     beta= 0.30
     Davidson diagonalization with overlap
     ethr =  1.66E-07,  avg # of iterations =  3.9

     total cpu time spent up to now is     9492.3 secs

     total energy              =    -216.61002059 Ry
     estimated scf accuracy    <       0.00001163 Ry

     iteration #  6     ecut=    60.00 Ry     beta= 0.30
     Davidson diagonalization with overlap
     ethr =  2.42E-08,  avg # of iterations =  3.1

     total cpu time spent up to now is     9511.0 secs

     total energy              =    -216.61002433 Ry
     estimated scf accuracy    <       0.00000336 Ry

     iteration #  7     ecut=    60.00 Ry     beta= 0.30
     Davidson diagonalization with overlap
     ethr =  7.00E-09,  avg # of iterations =  2.0

     total cpu time spent up to now is     9529.2 secs

     total energy              =    -216.61002546 Ry
     estimated scf accuracy    <       0.00000028 Ry

     iteration #  8     ecut=    60.00 Ry     beta= 0.30
     Davidson diagonalization with overlap
     ethr =  5.87E-10,  avg # of iterations =  4.9

     total cpu time spent up to now is     9551.7 secs

     total energy              =    -216.61002589 Ry
     estimated scf accuracy    <       0.00000019 Ry

     iteration #  9     ecut=    60.00 Ry     beta= 0.30
     Davidson diagonalization with overlap
     ethr =  3.98E-10,  avg # of iterations =  4.9

     total cpu time spent up to now is     9573.8 secs

     total energy              =    -216.61002619 Ry
     estimated scf accuracy    <       0.00000020 Ry

     iteration # 10     ecut=    60.00 Ry     beta= 0.30
     Davidson diagonalization with overlap
     ethr =  3.98E-10,  avg # of iterations =  2.6

     total cpu time spent up to now is     9589.2 secs

     total energy              =    -216.61002631 Ry
     estimated scf accuracy    <       0.00000003 Ry

     iteration # 11     ecut=    60.00 Ry     beta= 0.30
     Davidson diagonalization with overlap
     ethr =  5.94E-11,  avg # of iterations =  4.3

     total cpu time spent up to now is     9610.6 secs

     End of self-consistent calculation

     Number of k-points >= 100: set verbosity='high' to print the bands.

     highest occupied level (ev):     4.6775

!    total energy              =    -216.61002645 Ry
     estimated scf accuracy    <          4.1E-09 Ry

     The total energy is the sum of the following terms:
     one-electron contribution =     -87.28086189 Ry
     hartree contribution      =      70.02494211 Ry
     xc contribution           =     -49.34134253 Ry
     ewald contribution        =    -150.01276414 Ry

     convergence has been achieved in  11 iterations

     Forces acting on atoms (cartesian axes, Ry/au):

     atom    1 type  1   force =     0.01067103    0.00527258   -0.03023513
     atom    2 type  1   force =    -0.00669561    0.00123960   -0.01740475
     atom    3 type  1   force =     0.01947718   -0.00391337   -0.00468942
     atom    4 type  2   force =    -0.00150619   -0.01001772    0.02146776
     atom    5 type  2   force =    -0.04180990    0.01453774    0.04596297
     atom    6 type  2   force =     0.01624496    0.00021733    0.02913604
     atom    7 type  2   force =    -0.02427994    0.00226155   -0.04431446
     atom    8 type  2   force =     0.02530929   -0.00423478   -0.00481903
     atom    9 type  2   force =     0.00258918   -0.00536294    0.00489603

     Total force =     0.104258     Total SCF correction =     0.000125


     Computing stress (Cartesian axis) and pressure

          total   stress  (Ry/bohr**3)                   (kbar)     P=       19.71
   0.00018091  -0.00011253  -0.00010013           26.61      -16.55      -14.73
  -0.00011253   0.00019534  -0.00021773          -16.55       28.74      -32.03
  -0.00010013  -0.00021773   0.00002578          -14.73      -32.03        3.79

     Energy error            =      2.8E-02 Ry
     Gradient error          =      4.6E-02 Ry/Bohr
     Cell gradient error     =      3.2E+01 kbar

     number of scf cycles    =  22
     number of bfgs steps    =  20

     enthalpy           old  =    -216.5816090507 Ry
     enthalpy           new  =    -216.6100264525 Ry

     CASE: enthalpy          _new < enthalpy          _old

     new trust radius        =       0.1709536812 bohr
ibrav =      4
 celldm(1) =      9.25169323
 celldm(3) =      1.05485182
Input lattice vectors:
     0.99706263    -0.00297447    -0.00128025
    -0.50110728     0.86203108    -0.00154456
    -0.00154985    -0.00294373     1.05175361
New lattice vectors in INITIAL alat:
     0.99706789     0.00000000     0.00000000
    -0.49853394     0.86348612     0.00000000
     0.00000000     0.00000000     1.05175887
New lattice vectors in NEW alat (for information only):
     1.00000000     0.00000000     0.00000000
    -0.50000000     0.86602540     0.00000000
     0.00000000     0.00000000     1.05485182
Discrepancy in bohr =     0.003238    0.003335    0.003327
     new conv_thr            =       0.0000000046 Ry

     new unit-cell volume =    723.41208 a.u.^3 (   107.19861 Ang^3 )
     density =      2.79217 g/cm^3

CELL_PARAMETERS (alat=  9.27890000)
   0.997067888   0.000000000   0.000000000
  -0.498533944   0.863486121   0.000000000
   0.000000000   0.000000000   1.051758874

ATOMIC_POSITIONS (crystal)
Si               0.3718866177        0.4292519973        0.0300858931
Si               0.5200753514        0.0534979908        0.3275408669
Si               0.0701679603        0.5640244938        0.6037626080
O                0.3896217183        0.6032421457        0.7277305597
O                0.5026803833        0.7423296870        0.2067428618
O                0.1415250580        0.8795561876        0.4541778635
O                0.6469250989        0.3482667580        0.1211418011
O                0.7268826019        0.2552653538        0.5958044909
O                0.0436292102        0.1246173861        1.0327950550



     Writing config-only to output data dir ./tmp_quartz_ibrav4/quartz_ibrav4.save/ :
     XML data file
     NEW-OLD atomic charge density approx. for the potential
     New effective cutoffs (rho, wfc):  526.84   66.20

     negative rho (up, down):  7.731E-07 0.000E+00

     total cpu time spent up to now is     9617.9 secs

     Self-consistent Calculation

     iteration #  1     ecut=    60.00 Ry     beta= 0.30
     Davidson diagonalization with overlap
     ethr =  1.00E-06,  avg # of iterations = 11.1

     total cpu time spent up to now is     9677.3 secs

     total energy              =    -216.62918246 Ry
     estimated scf accuracy    <       0.01358379 Ry

     iteration #  2     ecut=    60.00 Ry     beta= 0.30
     Davidson diagonalization with overlap
     ethr =  2.83E-05,  avg # of iterations =  1.3

     total cpu time spent up to now is     9691.5 secs

     total energy              =    -216.62800283 Ry
     estimated scf accuracy    <       0.00404096 Ry

     iteration #  3     ecut=    60.00 Ry     beta= 0.30
     Davidson diagonalization with overlap
     ethr =  8.42E-06,  avg # of iterations =  2.0

     total cpu time spent up to now is     9709.7 secs

     total energy              =    -216.62862484 Ry
     estimated scf accuracy    <       0.00031212 Ry

     iteration #  4     ecut=    60.00 Ry     beta= 0.30
     Davidson diagonalization with overlap
     ethr =  6.50E-07,  avg # of iterations =  2.6

     total cpu time spent up to now is     9727.6 secs

     total energy              =    -216.62866515 Ry
     estimated scf accuracy    <       0.00006751 Ry

     iteration #  5     ecut=    60.00 Ry     beta= 0.30
     Davidson diagonalization with overlap
     ethr =  1.41E-07,  avg # of iterations =  2.5

     total cpu time spent up to now is     9746.1 secs

     total energy              =    -216.62868096 Ry
     estimated scf accuracy    <       0.00000933 Ry

     iteration #  6     ecut=    60.00 Ry     beta= 0.30
     Davidson diagonalization with overlap
     ethr =  1.94E-08,  avg # of iterations =  3.8

     total cpu time spent up to now is     9765.5 secs

     total energy              =    -216.62868400 Ry
     estimated scf accuracy    <       0.00000258 Ry

     iteration #  7     ecut=    60.00 Ry     beta= 0.30
     Davidson diagonalization with overlap
     ethr =  5.37E-09,  avg # of iterations =  2.0

     total cpu time spent up to now is     9783.8 secs

     total energy              =    -216.62868512 Ry
     estimated scf accuracy    <       0.00000023 Ry

     iteration #  8     ecut=    60.00 Ry     beta= 0.30
     Davidson diagonalization with overlap
     ethr =  4.69E-10,  avg # of iterations =  3.7

     total cpu time spent up to now is     9803.6 secs

     total energy              =    -216.62868552 Ry
     estimated scf accuracy    <       0.00000005 Ry

     iteration #  9     ecut=    60.00 Ry     beta= 0.30
     Davidson diagonalization with overlap
     ethr =  1.11E-10,  avg # of iterations =  2.9

     total cpu time spent up to now is     9822.8 secs

     total energy              =    -216.62868571 Ry
     estimated scf accuracy    <       0.00000001 Ry

     iteration # 10     ecut=    60.00 Ry     beta= 0.30
     Davidson diagonalization with overlap
     ethr =  2.78E-11,  avg # of iterations =  2.1

     total cpu time spent up to now is     9841.0 secs

     End of self-consistent calculation

     Number of k-points >= 100: set verbosity='high' to print the bands.

     highest occupied level (ev):     4.6011

!    total energy              =    -216.62868592 Ry
     estimated scf accuracy    <          9.4E-10 Ry

     The total energy is the sum of the following terms:
     one-electron contribution =     -87.43268156 Ry
     hartree contribution      =      69.90059420 Ry
     xc contribution           =     -49.30049028 Ry
     ewald contribution        =    -149.79610828 Ry

     convergence has been achieved in  10 iterations

     Forces acting on atoms (cartesian axes, Ry/au):

     atom    1 type  1   force =    -0.00690084    0.00337470   -0.04702400
     atom    2 type  1   force =    -0.00817931    0.01867987   -0.02034574
     atom    3 type  1   force =     0.01907792   -0.01208831    0.00753603
     atom    4 type  2   force =    -0.01220731   -0.02332520    0.01877927
     atom    5 type  2   force =    -0.04036412    0.02814650    0.04941621
     atom    6 type  2   force =     0.02338203    0.01175568    0.01103424
     atom    7 type  2   force =     0.00619461   -0.02874539   -0.00273990
     atom    8 type  2   force =     0.02572255   -0.00435333   -0.02950166
     atom    9 type  2   force =    -0.00672553    0.00655547    0.01284556

     Total force =     0.114277     Total SCF correction =     0.000071


     Computing stress (Cartesian axis) and pressure

          total   stress  (Ry/bohr**3)                   (kbar)     P=        3.34
   0.00012610  -0.00022333  -0.00000806           18.55      -32.85       -1.19
  -0.00022333  -0.00004243  -0.00012941          -32.85       -6.24      -19.04
  -0.00000806  -0.00012941  -0.00001548           -1.19      -19.04       -2.28

     Energy error            =      1.9E-02 Ry
     Gradient error          =      4.9E-02 Ry/Bohr
     Cell gradient error     =      3.3E+01 kbar

     number of scf cycles    =  23
     number of bfgs steps    =  21

     enthalpy           old  =    -216.6100264525 Ry
     enthalpy           new  =    -216.6286859183 Ry

     CASE: enthalpy          _new < enthalpy          _old

     new trust radius        =       0.2409610704 bohr
ibrav =      4
 celldm(1) =      9.42323410
 celldm(3) =      1.01354946
Input lattice vectors:
     1.01553800    -0.00588947    -0.00010452
    -0.51286943     0.87367790    -0.00095481
    -0.00022771    -0.00124786     1.02931453
New lattice vectors in INITIAL alat:
     1.01555509     0.00000000     0.00000000
    -0.50777754     0.87949650     0.00000000
     0.00000000     0.00000000     1.02931531
New lattice vectors in NEW alat (for information only):
     1.00000000     0.00000000     0.00000000
    -0.50000000     0.86602540     0.00000000
     0.00000000     0.00000000     1.01354946
Discrepancy in bohr =     0.005890    0.007791    0.001268
     new conv_thr            =       0.0000000049 Ry

     new unit-cell volume =    734.47247 a.u.^3 (   108.83759 Ang^3 )
     density =      2.75013 g/cm^3

CELL_PARAMETERS (alat=  9.27890000)
   1.015555087   0.000000000   0.000000000
  -0.507777543   0.879496504   0.000000000
   0.000000000   0.000000000   1.029315313

ATOMIC_POSITIONS (crystal)
Si               0.3610640000        0.4251988119        0.0291375324
Si               0.5225917763        0.0599140740        0.3222147266
Si               0.0879503952        0.5625600973        0.5886542145
O                0.3955432716        0.6056855003        0.7308382546
O                0.4799818390        0.7298072803        0.2189450028
O                0.1533978690        0.8929682194        0.4715153518
O                0.6312907657        0.3415018303        0.1000732596
O                0.7457635460        0.2626116042        0.5936377481
O                0.0358105372        0.1198045823        1.0447659096



     Writing config-only to output data dir ./tmp_quartz_ibrav4/quartz_ibrav4.save/ :
     XML data file
     NEW-OLD atomic charge density approx. for the potential
     New effective cutoffs (rho, wfc):  548.54   69.01

     negative rho (up, down):  1.675E-05 0.000E+00

     total cpu time spent up to now is     9848.3 secs

     Self-consistent Calculation

     iteration #  1     ecut=    60.00 Ry     beta= 0.30
     Davidson diagonalization with overlap
     ethr =  1.00E-06,  avg # of iterations = 12.0

     negative rho (up, down):  3.307E-07 0.000E+00

     total cpu time spent up to now is     9912.8 secs

     total energy              =    -216.64686201 Ry
     estimated scf accuracy    <       0.02641009 Ry

     iteration #  2     ecut=    60.00 Ry     beta= 0.30
     Davidson diagonalization with overlap
     ethr =  5.50E-05,  avg # of iterations =  1.0

     total cpu time spent up to now is     9926.3 secs

     total energy              =    -216.64441792 Ry
     estimated scf accuracy    <       0.00850048 Ry

     iteration #  3     ecut=    60.00 Ry     beta= 0.30
     Davidson diagonalization with overlap
     ethr =  1.77E-05,  avg # of iterations =  2.0

     total cpu time spent up to now is     9944.1 secs

     total energy              =    -216.64548198 Ry
     estimated scf accuracy    <       0.00072578 Ry

     iteration #  4     ecut=    60.00 Ry     beta= 0.30
     Davidson diagonalization with overlap
     ethr =  1.51E-06,  avg # of iterations =  3.5

     total cpu time spent up to now is     9963.2 secs

     total energy              =    -216.64561046 Ry
     estimated scf accuracy    <       0.00014579 Ry

     iteration #  5     ecut=    60.00 Ry     beta= 0.30
     Davidson diagonalization with overlap
     ethr =  3.04E-07,  avg # of iterations =  2.1

     total cpu time spent up to now is     9981.4 secs

     total energy              =    -216.64563739 Ry
     estimated scf accuracy    <       0.00002477 Ry

     iteration #  6     ecut=    60.00 Ry     beta= 0.30
     Davidson diagonalization with overlap
     ethr =  5.16E-08,  avg # of iterations =  2.6

     total cpu time spent up to now is     9997.3 secs

     total energy              =    -216.64564208 Ry
     estimated scf accuracy    <       0.00000346 Ry

     iteration #  7     ecut=    60.00 Ry     beta= 0.30
     Davidson diagonalization with overlap
     ethr =  7.21E-09,  avg # of iterations =  3.6

     total cpu time spent up to now is    10016.6 secs

     total energy              =    -216.64564359 Ry
     estimated scf accuracy    <       0.00000091 Ry

     iteration #  8     ecut=    60.00 Ry     beta= 0.30
     Davidson diagonalization with overlap
     ethr =  1.91E-09,  avg # of iterations =  4.6

     total cpu time spent up to now is    10038.6 secs

     total energy              =    -216.64564434 Ry
     estimated scf accuracy    <       0.00000053 Ry

     iteration #  9     ecut=    60.00 Ry     beta= 0.30
     Davidson diagonalization with overlap
     ethr =  1.10E-09,  avg # of iterations =  4.1

     total cpu time spent up to now is    10059.5 secs

     total energy              =    -216.64564472 Ry
     estimated scf accuracy    <       0.00000008 Ry

     iteration # 10     ecut=    60.00 Ry     beta= 0.30
     Davidson diagonalization with overlap
     ethr =  1.68E-10,  avg # of iterations =  3.0

     total cpu time spent up to now is    10077.1 secs

     total energy              =    -216.64564486 Ry
     estimated scf accuracy    <       0.00000001 Ry

     iteration # 11     ecut=    60.00 Ry     beta= 0.30
     Davidson diagonalization with overlap
     ethr =  2.58E-11,  avg # of iterations =  4.2

     total cpu time spent up to now is    10098.1 secs

     End of self-consistent calculation

     Number of k-points >= 100: set verbosity='high' to print the bands.

     highest occupied level (ev):     4.4521

!    total energy              =    -216.64564499 Ry
     estimated scf accuracy    <          2.8E-09 Ry

     The total energy is the sum of the following terms:
     one-electron contribution =     -88.40944921 Ry
     hartree contribution      =      70.05033590 Ry
     xc contribution           =     -49.20248978 Ry
     ewald contribution        =    -149.08404190 Ry

     convergence has been achieved in  11 iterations

     Forces acting on atoms (cartesian axes, Ry/au):

     atom    1 type  1   force =    -0.02759188   -0.01894580   -0.03942020
     atom    2 type  1   force =    -0.00305420    0.01743715   -0.00398413
     atom    3 type  1   force =     0.00064897    0.00995422   -0.01182670
     atom    4 type  2   force =    -0.01076495   -0.03534469    0.01732532
     atom    5 type  2   force =    -0.03757803    0.02848942    0.04662102
     atom    6 type  2   force =     0.04214143    0.00304413    0.00358086
     atom    7 type  2   force =     0.02204075   -0.03930163    0.02804568
     atom    8 type  2   force =     0.01962965   -0.00786225   -0.05917085
     atom    9 type  2   force =    -0.00547176    0.04252944    0.01882901

     Total force =     0.141640     Total SCF correction =     0.000151


     Computing stress (Cartesian axis) and pressure

          total   stress  (Ry/bohr**3)                   (kbar)     P=      -31.18
  -0.00005035  -0.00037920   0.00012869           -7.41      -55.78       18.93
  -0.00037920  -0.00055890  -0.00005823          -55.78      -82.22       -8.57
   0.00012869  -0.00005823  -0.00002655           18.93       -8.57       -3.91

     Energy error            =      1.7E-02 Ry
     Gradient error          =      5.9E-02 Ry/Bohr
     Cell gradient error     =      8.2E+01 kbar

     number of scf cycles    =  24
     number of bfgs steps    =  22

     enthalpy           old  =    -216.6286859183 Ry
     enthalpy           new  =    -216.6456449878 Ry

     CASE: enthalpy          _new < enthalpy          _old

     new trust radius        =       0.2698055449 bohr
ibrav =      4
 celldm(1) =      9.55988544
 celldm(3) =      0.98031768
Input lattice vectors:
     1.03025203    -0.00787770    -0.00031445
    -0.52194830     0.88593950     0.00043668
    -0.00002604     0.00038515     1.01000377
New lattice vectors in INITIAL alat:
     1.03028219     0.00000000     0.00000000
    -0.51514110     0.89225055     0.00000000
     0.00000000     0.00000000     1.01000385
New lattice vectors in NEW alat (for information only):
     1.00000000     0.00000000     0.00000000
    -0.50000000     0.86602540     0.00000000
     0.00000000     0.00000000     0.98031768
Discrepancy in bohr =     0.007884    0.009293    0.000386
     new conv_thr            =       0.0000000059 Ry

     new unit-cell volume =    741.74654 a.u.^3 (   109.91550 Ang^3 )
     density =      2.72316 g/cm^3

CELL_PARAMETERS (alat=  9.27890000)
   1.030282192   0.000000000   0.000000000
  -0.515141096   0.892250552   0.000000000
   0.000000000   0.000000000   1.010003845

ATOMIC_POSITIONS (crystal)
Si               0.3508519480        0.4222711209        0.0267030886
Si               0.5230548080        0.0667512321        0.3172064054
Si               0.1060970873        0.5686611632        0.5721011573
O                0.3981877081        0.6085842069        0.7367154200
O                0.4548545165        0.7190255949        0.2329331732
O                0.1660700646        0.8990208418        0.4894986027
O                0.6139919040        0.3304264972        0.0761189182
O                0.7703804222        0.2687558568        0.5876664761
O                0.0299055412        0.1165554862        1.0608387585



     Writing config-only to output data dir ./tmp_quartz_ibrav4/quartz_ibrav4.save/ :
     XML data file
     NEW-OLD atomic charge density approx. for the potential
     New effective cutoffs (rho, wfc):  568.48   71.58

     negative rho (up, down):  2.696E-06 0.000E+00

     total cpu time spent up to now is    10105.4 secs

     Self-consistent Calculation

     iteration #  1     ecut=    60.00 Ry     beta= 0.30
     Davidson diagonalization with overlap
     ethr =  1.00E-06,  avg # of iterations = 12.5

     total cpu time spent up to now is    10171.4 secs

     total energy              =    -216.65821423 Ry
     estimated scf accuracy    <       0.03466688 Ry

     iteration #  2     ecut=    60.00 Ry     beta= 0.30
     Davidson diagonalization with overlap
     ethr =  7.22E-05,  avg # of iterations =  1.9

     total cpu time spent up to now is    10185.6 secs

     total energy              =    -216.65602344 Ry
     estimated scf accuracy    <       0.00985461 Ry

     iteration #  3     ecut=    60.00 Ry     beta= 0.30
     Davidson diagonalization with overlap
     ethr =  2.05E-05,  avg # of iterations =  2.0

     total cpu time spent up to now is    10203.1 secs

     total energy              =    -216.65722949 Ry
     estimated scf accuracy    <       0.00125020 Ry

     iteration #  4     ecut=    60.00 Ry     beta= 0.30
     Davidson diagonalization with overlap
     ethr =  2.60E-06,  avg # of iterations =  2.0

     total cpu time spent up to now is    10221.2 secs

     total energy              =    -216.65743743 Ry
     estimated scf accuracy    <       0.00015726 Ry

     iteration #  5     ecut=    60.00 Ry     beta= 0.30
     Davidson diagonalization with overlap
     ethr =  3.28E-07,  avg # of iterations =  2.7

     total cpu time spent up to now is    10239.5 secs

     total energy              =    -216.65745925 Ry
     estimated scf accuracy    <       0.00003473 Ry

     iteration #  6     ecut=    60.00 Ry     beta= 0.30
     Davidson diagonalization with overlap
     ethr =  7.23E-08,  avg # of iterations =  2.3

     total cpu time spent up to now is    10257.9 secs

     total energy              =    -216.65746660 Ry
     estimated scf accuracy    <       0.00000553 Ry

     iteration #  7     ecut=    60.00 Ry     beta= 0.30
     Davidson diagonalization with overlap
     ethr =  1.15E-08,  avg # of iterations =  3.5

     total cpu time spent up to now is    10278.1 secs

     total energy              =    -216.65746852 Ry
     estimated scf accuracy    <       0.00000196 Ry

     iteration #  8     ecut=    60.00 Ry     beta= 0.30
     Davidson diagonalization with overlap
     ethr =  4.08E-09,  avg # of iterations =  3.6

     total cpu time spent up to now is    10298.1 secs

     total energy              =    -216.65746962 Ry
     estimated scf accuracy    <       0.00000026 Ry

     iteration #  9     ecut=    60.00 Ry     beta= 0.30
     Davidson diagonalization with overlap
     ethr =  5.39E-10,  avg # of iterations =  3.6

     total cpu time spent up to now is    10317.8 secs

     total energy              =    -216.65746991 Ry
     estimated scf accuracy    <       0.00000007 Ry

     iteration # 10     ecut=    60.00 Ry     beta= 0.30
     Davidson diagonalization with overlap
     ethr =  1.48E-10,  avg # of iterations =  5.0

     total cpu time spent up to now is    10341.7 secs

     total energy              =    -216.65747006 Ry
     estimated scf accuracy    <       0.00000007 Ry

     iteration # 11     ecut=    60.00 Ry     beta= 0.30
     Davidson diagonalization with overlap
     ethr =  1.40E-10,  avg # of iterations =  4.0

     total cpu time spent up to now is    10361.3 secs

     End of self-consistent calculation

     Number of k-points >= 100: set verbosity='high' to print the bands.

     highest occupied level (ev):     4.3388

!    total energy              =    -216.65747018 Ry
     estimated scf accuracy    <          1.8E-09 Ry

     The total energy is the sum of the following terms:
     one-electron contribution =     -90.43900453 Ry
     hartree contribution      =      70.81042928 Ry
     xc contribution           =     -49.17941820 Ry
     ewald contribution        =    -147.84947673 Ry

     convergence has been achieved in  11 iterations

     Forces acting on atoms (cartesian axes, Ry/au):

     atom    1 type  1   force =    -0.03956367   -0.04114942   -0.01835635
     atom    2 type  1   force =     0.01543168    0.02297403    0.01251132
     atom    3 type  1   force =     0.01610394   -0.01533208   -0.01996302
     atom    4 type  2   force =    -0.00918221   -0.03900065    0.01010836
     atom    5 type  2   force =    -0.03188642    0.00867771    0.03799741
     atom    6 type  2   force =     0.02764348    0.05085203   -0.01548343
     atom    7 type  2   force =     0.03136372   -0.03914185    0.05659224
     atom    8 type  2   force =    -0.00154752   -0.01201572   -0.08316633
     atom    9 type  2   force =    -0.00836300    0.06413597    0.01975981

     Total force =     0.174928     Total SCF correction =     0.000059


     Computing stress (Cartesian axis) and pressure

          total   stress  (Ry/bohr**3)                   (kbar)     P=      -43.00
  -0.00016450  -0.00061128   0.00022387          -24.20      -89.92       32.93
  -0.00061128  -0.00074741  -0.00008265          -89.92     -109.95      -12.16
   0.00022387  -0.00008265   0.00003490           32.93      -12.16        5.13

     Energy error            =      1.2E-02 Ry
     Gradient error          =      8.3E-02 Ry/Bohr
     Cell gradient error     =      1.1E+02 kbar

     number of scf cycles    =  25
     number of bfgs steps    =  23

     enthalpy           old  =    -216.6456449878 Ry
     enthalpy           new  =    -216.6574701755 Ry

     CASE: enthalpy          _new < enthalpy          _old

     new trust radius        =       0.6496753732 bohr
ibrav =      4
 celldm(1) =      9.87516439
 celldm(3) =      0.89820630
Input lattice vectors:
     1.06416288    -0.01320167     0.00574080
    -0.54351442     0.91988514    -0.00360873
     0.00678940    -0.00140294     0.95590012
New lattice vectors in INITIAL alat:
     1.06426025     0.00000000     0.00000000
    -0.53213012     0.92167641     0.00000000
     0.00000000     0.00000000     0.95592526
New lattice vectors in NEW alat (for information only):
     1.00000000     0.00000000     0.00000000
    -0.50000000     0.86602540     0.00000000
     0.00000000     0.00000000     0.89820630
Discrepancy in bohr =     0.014396    0.012076    0.006933
     new conv_thr            =       0.0000000083 Ry

     new unit-cell volume =    749.09989 a.u.^3 (   111.00515 Ang^3 )
     density =      2.69642 g/cm^3

CELL_PARAMETERS (alat=  9.27890000)
   1.064260246   0.000000000   0.000000000
  -0.532130123   0.921676409   0.000000000
   0.000000000   0.000000000   0.955925261

ATOMIC_POSITIONS (crystal)
Si               0.3157591664        0.4028417159        0.0233961539
Si               0.5330274775        0.0830888743        0.3081226674
Si               0.1587622345        0.5742576925        0.5252646076
O                0.4062368949        0.6152299337        0.7459063282
O                0.3972286108        0.6858171281        0.2681578027
O                0.2030676034        0.9375696408        0.5315511039
O                0.5756348335        0.3091239427        0.0295034926
O                0.8170112206        0.2879051249        0.5731603377
O                0.0066659583        0.1042179471        1.0947195061



     Writing config-only to output data dir ./tmp_quartz_ibrav4/quartz_ibrav4.save/ :
     XML data file
     NEW-OLD atomic charge density approx. for the potential
     New effective cutoffs (rho, wfc):  631.42   79.66

     negative rho (up, down):  4.419E-03 0.000E+00

     total cpu time spent up to now is    10368.6 secs

     Self-consistent Calculation

     iteration #  1     ecut=    60.00 Ry     beta= 0.30
     Davidson diagonalization with overlap
     ethr =  1.00E-06,  avg # of iterations = 15.2

     negative rho (up, down):  5.745E-04 0.000E+00

     total cpu time spent up to now is    10449.8 secs

     total energy              =    -216.60638920 Ry
     estimated scf accuracy    <       0.17645197 Ry

     iteration #  2     ecut=    60.00 Ry     beta= 0.30
     Davidson diagonalization with overlap
     ethr =  3.68E-04,  avg # of iterations =  1.0

     negative rho (up, down):  3.491E-05 0.000E+00

     total cpu time spent up to now is    10463.4 secs

     total energy              =    -216.59078886 Ry
     estimated scf accuracy    <       0.05639521 Ry

     iteration #  3     ecut=    60.00 Ry     beta= 0.30
     Davidson diagonalization with overlap
     ethr =  1.17E-04,  avg # of iterations =  2.0

     negative rho (up, down):  7.315E-07 0.000E+00

     total cpu time spent up to now is    10481.4 secs

     total energy              =    -216.59780294 Ry
     estimated scf accuracy    <       0.00516406 Ry

     iteration #  4     ecut=    60.00 Ry     beta= 0.30
     Davidson diagonalization with overlap
     ethr =  1.08E-05,  avg # of iterations =  3.6

     total cpu time spent up to now is    10499.8 secs

     total energy              =    -216.59843515 Ry
     estimated scf accuracy    <       0.00120665 Ry

     iteration #  5     ecut=    60.00 Ry     beta= 0.30
     Davidson diagonalization with overlap
     ethr =  2.51E-06,  avg # of iterations =  2.0

     total cpu time spent up to now is    10517.8 secs

     total energy              =    -216.59863417 Ry
     estimated scf accuracy    <       0.00017527 Ry

     iteration #  6     ecut=    60.00 Ry     beta= 0.30
     Davidson diagonalization with overlap
     ethr =  3.65E-07,  avg # of iterations =  2.8

     total cpu time spent up to now is    10535.2 secs

     total energy              =    -216.59865644 Ry
     estimated scf accuracy    <       0.00002773 Ry

     iteration #  7     ecut=    60.00 Ry     beta= 0.30
     Davidson diagonalization with overlap
     ethr =  5.78E-08,  avg # of iterations =  3.3

     total cpu time spent up to now is    10554.2 secs

     total energy              =    -216.59866024 Ry
     estimated scf accuracy    <       0.00000632 Ry

     iteration #  8     ecut=    60.00 Ry     beta= 0.30
     Davidson diagonalization with overlap
     ethr =  1.32E-08,  avg # of iterations =  4.8

     total cpu time spent up to now is    10576.4 secs

     total energy              =    -216.59866194 Ry
     estimated scf accuracy    <       0.00000425 Ry

     iteration #  9     ecut=    60.00 Ry     beta= 0.30
     Davidson diagonalization with overlap
     ethr =  8.86E-09,  avg # of iterations =  4.0

     total cpu time spent up to now is    10595.4 secs

     total energy              =    -216.59866322 Ry
     estimated scf accuracy    <       0.00000025 Ry

     iteration # 10     ecut=    60.00 Ry     beta= 0.30
     Davidson diagonalization with overlap
     ethr =  5.11E-10,  avg # of iterations =  6.0

     total cpu time spent up to now is    10626.5 secs

     total energy              =    -216.59866305 Ry
     estimated scf accuracy    <       0.00000186 Ry

     iteration # 11     ecut=    60.00 Ry     beta= 0.30
     Davidson diagonalization with overlap
     ethr =  5.11E-10,  avg # of iterations =  5.3

     total cpu time spent up to now is    10653.5 secs

     total energy              =    -216.59866337 Ry
     estimated scf accuracy    <       0.00000002 Ry

     iteration # 12     ecut=    60.00 Ry     beta= 0.30
     Davidson diagonalization with overlap
     ethr =  4.65E-11,  avg # of iterations =  4.1

     total cpu time spent up to now is    10676.6 secs

     End of self-consistent calculation

     Number of k-points >= 100: set verbosity='high' to print the bands.

     highest occupied level (ev):     3.9616

!    total energy              =    -216.59866340 Ry
     estimated scf accuracy    <          7.8E-09 Ry

     The total energy is the sum of the following terms:
     one-electron contribution =     -94.48433893 Ry
     hartree contribution      =      72.58171727 Ry
     xc contribution           =     -49.07884814 Ry
     ewald contribution        =    -145.61719360 Ry

     convergence has been achieved in  12 iterations

     Forces acting on atoms (cartesian axes, Ry/au):

     atom    1 type  1   force =     0.00178890   -0.09541176   -0.01536285
     atom    2 type  1   force =     0.01829499    0.05241546    0.07110246
     atom    3 type  1   force =    -0.18549859    0.04021630    0.07396603
     atom    4 type  2   force =     0.01647335   -0.04912482    0.06307804
     atom    5 type  2   force =     0.05024378    0.02558310   -0.13063547
     atom    6 type  2   force =     0.10899261   -0.03309308   -0.06106513
     atom    7 type  2   force =     0.02024402   -0.04764607    0.10254372
     atom    8 type  2   force =    -0.00615292    0.00965086   -0.10548417
     atom    9 type  2   force =    -0.02438614    0.09741002    0.00185736

     Total force =     0.370310     Total SCF correction =     0.000156


     Computing stress (Cartesian axis) and pressure

          total   stress  (Ry/bohr**3)                   (kbar)     P=      -58.77
  -0.00044636  -0.00071867   0.00018281          -65.66     -105.72       26.89
  -0.00071867  -0.00155635  -0.00010518         -105.72     -228.95      -15.47
   0.00018281  -0.00010518   0.00080409           26.89      -15.47      118.29

     Energy error            =      5.9E-02 Ry
     Gradient error          =      1.9E-01 Ry/Bohr
     Cell gradient error     =      2.3E+02 kbar

     number of scf cycles    =  26
     number of bfgs steps    =  24

     enthalpy           old  =    -216.6574701755 Ry
     enthalpy           new  =    -216.5986634008 Ry

     CASE: enthalpy          _new > enthalpy          _old

     new trust radius        =       0.1108608516 bohr
ibrav =      4
 celldm(1) =      9.61398672
 celldm(3) =      0.96584474
Input lattice vectors:
     1.03611276     0.00000000     0.00000000
    -0.51805638     0.89729997     0.00000000
     0.00000000     0.00000000     1.00072406
New lattice vectors in INITIAL alat:
     1.03611276     0.00000000     0.00000000
    -0.51805638     0.89729997     0.00000000
     0.00000000     0.00000000     1.00072406
New lattice vectors in NEW alat (for information only):
     1.00000000     0.00000000     0.00000000
    -0.50000000     0.86602540     0.00000000
     0.00000000     0.00000000     0.96584474
Discrepancy in bohr =     0.000000    0.000000    0.000000
     new conv_thr            =       0.0000000083 Ry

     new unit-cell volume =    743.27325 a.u.^3 (   110.14173 Ang^3 )
     density =      2.71756 g/cm^3

CELL_PARAMETERS (alat=  9.27890000)
   1.036112764   0.000000000   0.000000000
  -0.518056382   0.897299975   0.000000000
   0.000000000   0.000000000   1.000724060

ATOMIC_POSITIONS (crystal)
Si               0.3448300915        0.4189370709        0.0261356247
Si               0.5247660997        0.0695547413        0.3156476528
Si               0.1151343293        0.5696215173        0.5640640919
O                0.3995689337        0.6097246014        0.7382925628
O                0.4449660175        0.7133270833        0.2389776545
O                0.1724187739        0.9056357445        0.4967147342
O                0.6074099016        0.3267710182        0.0681197973
O                0.7783821811        0.2720418358        0.5851772496
O                0.0259176717        0.1144383873        1.0666526322



     Writing config-only to output data dir ./tmp_quartz_ibrav4/quartz_ibrav4.save/ :
     XML data file
     NEW-OLD atomic charge density approx. for the potential
     New effective cutoffs (rho, wfc):  578.54   72.87

     negative rho (up, down):  6.270E-04 0.000E+00

     total cpu time spent up to now is    10684.0 secs

     Self-consistent Calculation

     iteration #  1     ecut=    60.00 Ry     beta= 0.30
     Davidson diagonalization with overlap
     ethr =  1.00E-06,  avg # of iterations = 14.3

     negative rho (up, down):  2.414E-04 0.000E+00

     total cpu time spent up to now is    10761.0 secs

     total energy              =    -216.66428157 Ry
     estimated scf accuracy    <       0.14171130 Ry

     iteration #  2     ecut=    60.00 Ry     beta= 0.30
     Davidson diagonalization with overlap
     ethr =  2.95E-04,  avg # of iterations =  1.8

     negative rho (up, down):  1.877E-05 0.000E+00

     total cpu time spent up to now is    10775.2 secs

     total energy              =    -216.65543455 Ry
     estimated scf accuracy    <       0.04181495 Ry

     iteration #  3     ecut=    60.00 Ry     beta= 0.30
     Davidson diagonalization with overlap
     ethr =  8.71E-05,  avg # of iterations =  2.0

     total cpu time spent up to now is    10793.5 secs

     total energy              =    -216.66097272 Ry
     estimated scf accuracy    <       0.00590608 Ry

     iteration #  4     ecut=    60.00 Ry     beta= 0.30
     Davidson diagonalization with overlap
     ethr =  1.23E-05,  avg # of iterations =  2.5

     total cpu time spent up to now is    10811.3 secs

     total energy              =    -216.66192287 Ry
     estimated scf accuracy    <       0.00071928 Ry

     iteration #  5     ecut=    60.00 Ry     beta= 0.30
     Davidson diagonalization with overlap
     ethr =  1.50E-06,  avg # of iterations =  3.4

     total cpu time spent up to now is    10830.0 secs

     total energy              =    -216.66200795 Ry
     estimated scf accuracy    <       0.00015410 Ry

     iteration #  6     ecut=    60.00 Ry     beta= 0.30
     Davidson diagonalization with overlap
     ethr =  3.21E-07,  avg # of iterations =  3.0

     total cpu time spent up to now is    10848.6 secs

     total energy              =    -216.66202672 Ry
     estimated scf accuracy    <       0.00003523 Ry

     iteration #  7     ecut=    60.00 Ry     beta= 0.30
     Davidson diagonalization with overlap
     ethr =  7.34E-08,  avg # of iterations =  2.4

     total cpu time spent up to now is    10867.7 secs

     total energy              =    -216.66203360 Ry
     estimated scf accuracy    <       0.00000579 Ry

     iteration #  8     ecut=    60.00 Ry     beta= 0.30
     Davidson diagonalization with overlap
     ethr =  1.21E-08,  avg # of iterations =  2.1

     total cpu time spent up to now is    10886.2 secs

     total energy              =    -216.66203387 Ry
     estimated scf accuracy    <       0.00000240 Ry

     iteration #  9     ecut=    60.00 Ry     beta= 0.30
     Davidson diagonalization with overlap
     ethr =  4.99E-09,  avg # of iterations =  4.5

     total cpu time spent up to now is    10909.7 secs

     total energy              =    -216.66203458 Ry
     estimated scf accuracy    <       0.00000143 Ry

     iteration # 10     ecut=    60.00 Ry     beta= 0.30
     Davidson diagonalization with overlap
     ethr =  2.98E-09,  avg # of iterations =  4.3

     total cpu time spent up to now is    10931.1 secs

     total energy              =    -216.66203503 Ry
     estimated scf accuracy    <       0.00000020 Ry

     iteration # 11     ecut=    60.00 Ry     beta= 0.30
     Davidson diagonalization with overlap
     ethr =  4.20E-10,  avg # of iterations =  3.2

     total cpu time spent up to now is    10947.6 secs

     total energy              =    -216.66203507 Ry
     estimated scf accuracy    <       0.00000006 Ry

     iteration # 12     ecut=    60.00 Ry     beta= 0.30
     Davidson diagonalization with overlap
     ethr =  1.16E-10,  avg # of iterations =  5.0

     total cpu time spent up to now is    10970.6 secs

     total energy              =    -216.66203509 Ry
     estimated scf accuracy    <       0.00000003 Ry

     iteration # 13     ecut=    60.00 Ry     beta= 0.30
     Davidson diagonalization with overlap
     ethr =  5.49E-11,  avg # of iterations =  4.0

     total cpu time spent up to now is    10988.8 secs

     End of self-consistent calculation

     Number of k-points >= 100: set verbosity='high' to print the bands.

     highest occupied level (ev):     4.2618

!    total energy              =    -216.66203507 Ry
     estimated scf accuracy    <          4.2E-09 Ry

     The total energy is the sum of the following terms:
     one-electron contribution =     -90.84569590 Ry
     hartree contribution      =      70.96313144 Ry
     xc contribution           =     -49.15221997 Ry
     ewald contribution        =    -147.62725064 Ry

     convergence has been achieved in  13 iterations

     Forces acting on atoms (cartesian axes, Ry/au):

     atom    1 type  1   force =    -0.03470142   -0.04756949   -0.01522388
     atom    2 type  1   force =     0.01729075    0.02419196    0.02111009
     atom    3 type  1   force =    -0.00007645    0.00490276   -0.03708013
     atom    4 type  2   force =    -0.00239595   -0.04200643    0.01714104
     atom    5 type  2   force =    -0.03581873    0.00307132    0.03621423
     atom    6 type  2   force =     0.03872974    0.03589011   -0.01639798
     atom    7 type  2   force =     0.03045692   -0.04093820    0.06382468
     atom    8 type  2   force =    -0.00114287   -0.00805322   -0.08842389
     atom    9 type  2   force =    -0.01234199    0.07051120    0.01883584

     Total force =     0.184915     Total SCF correction =     0.000091


     Computing stress (Cartesian axis) and pressure

          total   stress  (Ry/bohr**3)                   (kbar)     P=      -52.88
  -0.00023530  -0.00066376   0.00028498          -34.61      -97.64       41.92
  -0.00066376  -0.00092614  -0.00004210          -97.64     -136.24       -6.19
   0.00028498  -0.00004210   0.00008301           41.92       -6.19       12.21

     Energy error            =      4.6E-03 Ry
     Gradient error          =      8.8E-02 Ry/Bohr
     Cell gradient error     =      1.4E+02 kbar

     number of scf cycles    =  27
     number of bfgs steps    =  24

     enthalpy           old  =    -216.6574701755 Ry
     enthalpy           new  =    -216.6620350694 Ry

     CASE: enthalpy          _new < enthalpy          _old

     new trust radius        =       0.1670422446 bohr
ibrav =      4
 celldm(1) =      9.67912119
 celldm(3) =      0.94765695
Input lattice vectors:
     1.04313012    -0.00209842     0.00057996
    -0.52338234     0.90273391    -0.00031413
     0.00085609     0.00002423     0.98853129
New lattice vectors in INITIAL alat:
     1.04313240     0.00000000     0.00000000
    -0.52156620     0.90337915     0.00000000
     0.00000000     0.00000000     0.98853166
New lattice vectors in NEW alat (for information only):
     1.00000000     0.00000000     0.00000000
    -0.50000000     0.86602540     0.00000000
     0.00000000     0.00000000     0.94765695
Discrepancy in bohr =     0.002177    0.001953    0.000856
     new conv_thr            =       0.0000000046 Ry

     new unit-cell volume =    744.19983 a.u.^3 (   110.27904 Ang^3 )
     density =      2.71418 g/cm^3

CELL_PARAMETERS (alat=  9.27890000)
   1.043132396   0.000000000   0.000000000
  -0.521566198   0.903379154   0.000000000
   0.000000000   0.000000000   0.988531660

ATOMIC_POSITIONS (crystal)
Si               0.3364144595        0.4136368136        0.0248217875
Si               0.5276678582        0.0740866354        0.3136657732
Si               0.1287450071        0.5730809660        0.5513095728
O                0.4012570784        0.6115344107        0.7412416998
O                0.4296669890        0.7043301499        0.2482453502
O                0.1818260169        0.9144663760        0.5071245886
O                0.5972594984        0.3208096013        0.0565090968
O                0.7913223151        0.2771560480        0.5811645913
O                0.0192347773        0.1109509992        1.0756995397



     Writing config-only to output data dir ./tmp_quartz_ibrav4/quartz_ibrav4.save/ :
     XML data file
     NEW-OLD atomic charge density approx. for the potential
     New effective cutoffs (rho, wfc):  592.22   74.63

     negative rho (up, down):  5.445E-08 0.000E+00

     total cpu time spent up to now is    10996.1 secs

     Self-consistent Calculation

     iteration #  1     ecut=    60.00 Ry     beta= 0.30
     Davidson diagonalization with overlap
     ethr =  1.00E-06,  avg # of iterations = 11.0

     total cpu time spent up to now is    11056.2 secs

     total energy              =    -216.66855402 Ry
     estimated scf accuracy    <       0.01279660 Ry

     iteration #  2     ecut=    60.00 Ry     beta= 0.30
     Davidson diagonalization with overlap
     ethr =  2.67E-05,  avg # of iterations =  2.0

     total cpu time spent up to now is    11071.1 secs

     total energy              =    -216.66785468 Ry
     estimated scf accuracy    <       0.00378565 Ry

     iteration #  3     ecut=    60.00 Ry     beta= 0.30
     Davidson diagonalization with overlap
     ethr =  7.89E-06,  avg # of iterations =  2.0

     total cpu time spent up to now is    11089.0 secs

     total energy              =    -216.66824991 Ry
     estimated scf accuracy    <       0.00053958 Ry

     iteration #  4     ecut=    60.00 Ry     beta= 0.30
     Davidson diagonalization with overlap
     ethr =  1.12E-06,  avg # of iterations =  2.2

     total cpu time spent up to now is    11107.6 secs

     total energy              =    -216.66833918 Ry
     estimated scf accuracy    <       0.00005834 Ry

     iteration #  5     ecut=    60.00 Ry     beta= 0.30
     Davidson diagonalization with overlap
     ethr =  1.22E-07,  avg # of iterations =  3.2

     total cpu time spent up to now is    11125.6 secs

     total energy              =    -216.66834678 Ry
     estimated scf accuracy    <       0.00001552 Ry

     iteration #  6     ecut=    60.00 Ry     beta= 0.30
     Davidson diagonalization with overlap
     ethr =  3.23E-08,  avg # of iterations =  2.0

     total cpu time spent up to now is    11144.7 secs

     total energy              =    -216.66835055 Ry
     estimated scf accuracy    <       0.00000252 Ry

     iteration #  7     ecut=    60.00 Ry     beta= 0.30
     Davidson diagonalization with overlap
     ethr =  5.26E-09,  avg # of iterations =  3.0

     total cpu time spent up to now is    11166.2 secs

     total energy              =    -216.66835161 Ry
     estimated scf accuracy    <       0.00000137 Ry

     iteration #  8     ecut=    60.00 Ry     beta= 0.30
     Davidson diagonalization with overlap
     ethr =  2.85E-09,  avg # of iterations =  2.9

     total cpu time spent up to now is    11185.5 secs

     total energy              =    -216.66835234 Ry
     estimated scf accuracy    <       0.00000010 Ry

     iteration #  9     ecut=    60.00 Ry     beta= 0.30
     Davidson diagonalization with overlap
     ethr =  2.02E-10,  avg # of iterations =  4.8

     total cpu time spent up to now is    11207.5 secs

     total energy              =    -216.66835254 Ry
     estimated scf accuracy    <       0.00000008 Ry

     iteration # 10     ecut=    60.00 Ry     beta= 0.30
     Davidson diagonalization with overlap
     ethr =  1.77E-10,  avg # of iterations =  3.4

     total cpu time spent up to now is    11226.9 secs

     End of self-consistent calculation

     Number of k-points >= 100: set verbosity='high' to print the bands.

     highest occupied level (ev):     4.1774

!    total energy              =    -216.66835266 Ry
     estimated scf accuracy    <          3.8E-09 Ry

     The total energy is the sum of the following terms:
     one-electron contribution =     -91.62716485 Ry
     hartree contribution      =      71.30418483 Ry
     xc contribution           =     -49.13182333 Ry
     ewald contribution        =    -147.21354930 Ry

     convergence has been achieved in  10 iterations

     Forces acting on atoms (cartesian axes, Ry/au):

     atom    1 type  1   force =    -0.03532679   -0.05908525   -0.01223035
     atom    2 type  1   force =     0.02327133    0.02759896    0.03401803
     atom    3 type  1   force =    -0.01803841    0.02131511   -0.04403929
     atom    4 type  2   force =     0.00363389   -0.04478698    0.02601848
     atom    5 type  2   force =    -0.03761449   -0.00340404    0.02599386
     atom    6 type  2   force =     0.05139700    0.02562820   -0.02368429
     atom    7 type  2   force =     0.03337335   -0.04340954    0.07437609
     atom    8 type  2   force =    -0.00495484   -0.00381622   -0.09599963
     atom    9 type  2   force =    -0.01574104    0.07995976    0.01554710

     Total force =     0.208312     Total SCF correction =     0.000109


     Computing stress (Cartesian axis) and pressure

          total   stress  (Ry/bohr**3)                   (kbar)     P=      -61.63
  -0.00032230  -0.00075058   0.00034128          -47.41     -110.41       50.20
  -0.00075058  -0.00111043  -0.00001777         -110.41     -163.35       -2.61
   0.00034128  -0.00001777   0.00017585           50.20       -2.61       25.87

     Energy error            =      6.3E-03 Ry
     Gradient error          =      9.6E-02 Ry/Bohr
     Cell gradient error     =      1.6E+02 kbar

     number of scf cycles    =  28
     number of bfgs steps    =  25

     enthalpy           old  =    -216.6620350694 Ry
     enthalpy           new  =    -216.6683526556 Ry

     CASE: enthalpy          _new < enthalpy          _old

     new trust radius        =       0.2781590000 bohr
ibrav =      4
 celldm(1) =      9.75395377
 celldm(3) =      0.92776834
Input lattice vectors:
     1.05115428    -0.00944405     0.00103336
    -0.53375592     0.90890137    -0.00239296
     0.00172491    -0.00249401     0.97526277
New lattice vectors in INITIAL alat:
     1.05119721     0.00000000     0.00000000
    -0.52559860     0.91036349     0.00000000
     0.00000000     0.00000000     0.97526749
New lattice vectors in NEW alat (for information only):
     1.00000000     0.00000000     0.00000000
    -0.50000000     0.86602540     0.00000000
     0.00000000     0.00000000     0.92776834
Discrepancy in bohr =     0.009501    0.008626    0.003032
     new conv_thr            =       0.0000000063 Ry

     new unit-cell volume =    745.61091 a.u.^3 (   110.48814 Ang^3 )
     density =      2.70904 g/cm^3

CELL_PARAMETERS (alat=  9.27890000)
   1.051197207   0.000000000   0.000000000
  -0.525598604   0.910363486   0.000000000
   0.000000000   0.000000000   0.975267486

ATOMIC_POSITIONS (crystal)
Si               0.3215276710        0.4026468224        0.0212052320
Si               0.5343564362        0.0821008404        0.3116031492
Si               0.1522083207        0.5805659821        0.5303386462
O                0.4005224339        0.6133140175        0.7477048943
O                0.4047884063        0.6889444972        0.2640665842
O                0.1999225572        0.9306815554        0.5226186884
O                0.5814032122        0.3104714510        0.0403789783
O                0.8110539755        0.2858259201        0.5721696016
O                0.0076109868        0.1055009139        1.0896962257



     Writing config-only to output data dir ./tmp_quartz_ibrav4/quartz_ibrav4.save/ :
     XML data file
     NEW-OLD atomic charge density approx. for the potential
     New effective cutoffs (rho, wfc):  607.70   76.62

     negative rho (up, down):  8.578E-07 0.000E+00

     total cpu time spent up to now is    11234.3 secs

     Self-consistent Calculation

     iteration #  1     ecut=    60.00 Ry     beta= 0.30
     Davidson diagonalization with overlap
     ethr =  1.00E-06,  avg # of iterations = 13.0

     total cpu time spent up to now is    11304.0 secs

     total energy              =    -216.66934124 Ry
     estimated scf accuracy    <       0.03187207 Ry

     iteration #  2     ecut=    60.00 Ry     beta= 0.30
     Davidson diagonalization with overlap
     ethr =  6.64E-05,  avg # of iterations =  1.1

     total cpu time spent up to now is    11318.0 secs

     total energy              =    -216.66610974 Ry
     estimated scf accuracy    <       0.01044647 Ry

     iteration #  3     ecut=    60.00 Ry     beta= 0.30
     Davidson diagonalization with overlap
     ethr =  2.18E-05,  avg # of iterations =  2.0

     total cpu time spent up to now is    11336.4 secs

     total energy              =    -216.66745230 Ry
     estimated scf accuracy    <       0.00078758 Ry

     iteration #  4     ecut=    60.00 Ry     beta= 0.30
     Davidson diagonalization with overlap
     ethr =  1.64E-06,  avg # of iterations =  3.0

     total cpu time spent up to now is    11353.6 secs

     total energy              =    -216.66752466 Ry
     estimated scf accuracy    <       0.00017722 Ry

     iteration #  5     ecut=    60.00 Ry     beta= 0.30
     Davidson diagonalization with overlap
     ethr =  3.69E-07,  avg # of iterations =  2.0

     total cpu time spent up to now is    11371.8 secs

     total energy              =    -216.66755561 Ry
     estimated scf accuracy    <       0.00002417 Ry

     iteration #  6     ecut=    60.00 Ry     beta= 0.30
     Davidson diagonalization with overlap
     ethr =  5.04E-08,  avg # of iterations =  3.0

     total cpu time spent up to now is    11390.4 secs

     total energy              =    -216.66756112 Ry
     estimated scf accuracy    <       0.00000493 Ry

     iteration #  7     ecut=    60.00 Ry     beta= 0.30
     Davidson diagonalization with overlap
     ethr =  1.03E-08,  avg # of iterations =  2.2

     total cpu time spent up to now is    11407.8 secs

     total energy              =    -216.66756280 Ry
     estimated scf accuracy    <       0.00000050 Ry

     iteration #  8     ecut=    60.00 Ry     beta= 0.30
     Davidson diagonalization with overlap
     ethr =  1.03E-09,  avg # of iterations =  3.9

     total cpu time spent up to now is    11429.1 secs

     total energy              =    -216.66756348 Ry
     estimated scf accuracy    <       0.00000012 Ry

     iteration #  9     ecut=    60.00 Ry     beta= 0.30
     Davidson diagonalization with overlap
     ethr =  2.52E-10,  avg # of iterations =  3.4

     total cpu time spent up to now is    11452.2 secs

     total energy              =    -216.66756383 Ry
     estimated scf accuracy    <       0.00000008 Ry

     iteration # 10     ecut=    60.00 Ry     beta= 0.30
     Davidson diagonalization with overlap
     ethr =  1.64E-10,  avg # of iterations =  3.6

     total cpu time spent up to now is    11473.0 secs

     total energy              =    -216.66756398 Ry
     estimated scf accuracy    <       0.00000002 Ry

     iteration # 11     ecut=    60.00 Ry     beta= 0.30
     Davidson diagonalization with overlap
     ethr =  3.47E-11,  avg # of iterations =  2.0

     total cpu time spent up to now is    11490.6 secs

     total energy              =    -216.66756405 Ry
     estimated scf accuracy    <          7.7E-09 Ry

     iteration # 12     ecut=    60.00 Ry     beta= 0.30
     Davidson diagonalization with overlap
     ethr =  1.61E-11,  avg # of iterations =  4.8

     total cpu time spent up to now is    11513.0 secs

     End of self-consistent calculation

     Number of k-points >= 100: set verbosity='high' to print the bands.

     highest occupied level (ev):     4.0158

!    total energy              =    -216.66756409 Ry
     estimated scf accuracy    <          2.9E-09 Ry

     The total energy is the sum of the following terms:
     one-electron contribution =     -94.07358746 Ry
     hartree contribution      =      72.42358943 Ry
     xc contribution           =     -49.15235561 Ry
     ewald contribution        =    -145.86521044 Ry

     convergence has been achieved in  12 iterations

     Forces acting on atoms (cartesian axes, Ry/au):

     atom    1 type  1   force =    -0.03158628   -0.07084992   -0.00316501
     atom    2 type  1   force =     0.03176099    0.03962658    0.05150252
     atom    3 type  1   force =    -0.10126736    0.02160173    0.01932881
     atom    4 type  2   force =     0.01450469   -0.04356276    0.04335157
     atom    5 type  2   force =     0.01135545    0.00301691   -0.06112062
     atom    6 type  2   force =     0.07240568    0.00474092   -0.04294908
     atom    7 type  2   force =     0.03506505   -0.04445628    0.08668172
     atom    8 type  2   force =    -0.00822167    0.00804851   -0.10053799
     atom    9 type  2   force =    -0.02401655    0.08183430    0.00690809

     Total force =     0.256138     Total SCF correction =     0.000119


     Computing stress (Cartesian axis) and pressure

          total   stress  (Ry/bohr**3)                   (kbar)     P=      -55.04
  -0.00033471  -0.00076302   0.00027318          -49.24     -112.24       40.19
  -0.00076302  -0.00127315  -0.00007876         -112.24     -187.29      -11.59
   0.00027318  -0.00007876   0.00048530           40.19      -11.59       71.39

     Energy error            =      7.9E-04 Ry
     Gradient error          =      1.0E-01 Ry/Bohr
     Cell gradient error     =      1.9E+02 kbar

     number of scf cycles    =  29
     number of bfgs steps    =  26

     enthalpy           old  =    -216.6683526556 Ry
     enthalpy           new  =    -216.6675640879 Ry

     CASE: enthalpy          _new > enthalpy          _old

     new trust radius        =       0.1333685403 bohr
ibrav =      4
 celldm(1) =      9.71508474
 celldm(3) =      0.93806050
Input lattice vectors:
     1.04700824     0.00000000     0.00000000
    -0.52350412     0.90673573     0.00000000
     0.00000000     0.00000000     0.98215707
New lattice vectors in INITIAL alat:
     1.04700824     0.00000000     0.00000000
    -0.52350412     0.90673573     0.00000000
     0.00000000     0.00000000     0.98215707
New lattice vectors in NEW alat (for information only):
     1.00000000     0.00000000     0.00000000
    -0.50000000     0.86602540     0.00000000
     0.00000000     0.00000000     0.93806050
Discrepancy in bohr =     0.000000    0.000000    0.000000
     new conv_thr            =       0.0000000063 Ry

     new unit-cell volume =    744.90564 a.u.^3 (   110.38363 Ang^3 )
     density =      2.71161 g/cm^3

CELL_PARAMETERS (alat=  9.27890000)
   1.047008238   0.000000000   0.000000000
  -0.523504119   0.906735732   0.000000000
   0.000000000   0.000000000   0.982157072

ATOMIC_POSITIONS (crystal)
Si               0.3292600641        0.4083551679        0.0230837183
Si               0.5308823011        0.0779381573        0.3126745032
Si               0.1400211682        0.5766781666        0.5412312203
O                0.4009040179        0.6123896664        0.7443478264
O                0.4177106682        0.6969360068        0.2558488279
O                0.1905229770        0.9222591787        0.5145708499
O                0.5896391751        0.3158412217        0.0487571733
O                0.8008050925        0.2813226749        0.5768417171
O                0.0136485359        0.1083317596        1.0824261636



     Writing config-only to output data dir ./tmp_quartz_ibrav4/quartz_ibrav4.save/ :
     XML data file
     NEW-OLD atomic charge density approx. for the potential
     New effective cutoffs (rho, wfc):  599.58   75.57

     total cpu time spent up to now is    11520.3 secs

     Self-consistent Calculation

     iteration #  1     ecut=    60.00 Ry     beta= 0.30
     Davidson diagonalization with overlap
     ethr =  1.00E-06,  avg # of iterations = 11.0

     total cpu time spent up to now is    11577.5 secs

     total energy              =    -216.67516180 Ry
     estimated scf accuracy    <       0.00917081 Ry

     iteration #  2     ecut=    60.00 Ry     beta= 0.30
     Davidson diagonalization with overlap
     ethr =  1.91E-05,  avg # of iterations =  1.2

     total cpu time spent up to now is    11591.6 secs

     total energy              =    -216.67421972 Ry
     estimated scf accuracy    <       0.00303327 Ry

     iteration #  3     ecut=    60.00 Ry     beta= 0.30
     Davidson diagonalization with overlap
     ethr =  6.32E-06,  avg # of iterations =  2.0

     total cpu time spent up to now is    11610.1 secs

     total energy              =    -216.67462285 Ry
     estimated scf accuracy    <       0.00023111 Ry

     iteration #  4     ecut=    60.00 Ry     beta= 0.30
     Davidson diagonalization with overlap
     ethr =  4.81E-07,  avg # of iterations =  3.4

     total cpu time spent up to now is    11627.6 secs

     total energy              =    -216.67464685 Ry
     estimated scf accuracy    <       0.00005442 Ry

     iteration #  5     ecut=    60.00 Ry     beta= 0.30
     Davidson diagonalization with overlap
     ethr =  1.13E-07,  avg # of iterations =  2.3

     total cpu time spent up to now is    11646.1 secs

     total energy              =    -216.67465789 Ry
     estimated scf accuracy    <       0.00000735 Ry

     iteration #  6     ecut=    60.00 Ry     beta= 0.30
     Davidson diagonalization with overlap
     ethr =  1.53E-08,  avg # of iterations =  3.2

     total cpu time spent up to now is    11663.4 secs

     total energy              =    -216.67465963 Ry
     estimated scf accuracy    <       0.00000166 Ry

     iteration #  7     ecut=    60.00 Ry     beta= 0.30
     Davidson diagonalization with overlap
     ethr =  3.45E-09,  avg # of iterations =  3.5

     total cpu time spent up to now is    11683.2 secs

     total energy              =    -216.67466029 Ry
     estimated scf accuracy    <       0.00000036 Ry

     iteration #  8     ecut=    60.00 Ry     beta= 0.30
     Davidson diagonalization with overlap
     ethr =  7.42E-10,  avg # of iterations =  4.3

     total cpu time spent up to now is    11703.9 secs

     total energy              =    -216.67466062 Ry
     estimated scf accuracy    <       0.00000018 Ry

     iteration #  9     ecut=    60.00 Ry     beta= 0.30
     Davidson diagonalization with overlap
     ethr =  3.84E-10,  avg # of iterations =  4.0

     total cpu time spent up to now is    11723.4 secs

     total energy              =    -216.67466082 Ry
     estimated scf accuracy    <       0.00000003 Ry

     iteration # 10     ecut=    60.00 Ry     beta= 0.30
     Davidson diagonalization with overlap
     ethr =  6.01E-11,  avg # of iterations =  2.0

     total cpu time spent up to now is    11739.3 secs

     total energy              =    -216.67466086 Ry
     estimated scf accuracy    <       0.00000001 Ry

     iteration # 11     ecut=    60.00 Ry     beta= 0.30
     Davidson diagonalization with overlap
     ethr =  2.35E-11,  avg # of iterations =  4.4

     total cpu time spent up to now is    11760.7 secs

     End of self-consistent calculation

     Number of k-points >= 100: set verbosity='high' to print the bands.

     highest occupied level (ev):     4.0993

!    total energy              =    -216.67466090 Ry
     estimated scf accuracy    <          6.3E-09 Ry

     The total energy is the sum of the following terms:
     one-electron contribution =     -92.69087388 Ry
     hartree contribution      =      71.78699657 Ry
     xc contribution           =     -49.13645610 Ry
     ewald contribution        =    -146.63432748 Ry

     convergence has been achieved in  11 iterations

     Forces acting on atoms (cartesian axes, Ry/au):

     atom    1 type  1   force =    -0.03356962   -0.06369851   -0.00705542
     atom    2 type  1   force =     0.02760169    0.03183212    0.04208686
     atom    3 type  1   force =    -0.04666391    0.02694043   -0.03251479
     atom    4 type  2   force =     0.01061999   -0.04448200    0.03485826
     atom    5 type  2   force =    -0.02669101   -0.00626430    0.00058493
     atom    6 type  2   force =     0.06055681    0.01624500   -0.03128947
     atom    7 type  2   force =     0.03422206   -0.04381169    0.07981277
     atom    8 type  2   force =    -0.00587085    0.00216249   -0.09855677
     atom    9 type  2   force =    -0.02020517    0.08107646    0.01207363

     Total force =     0.219204     Total SCF correction =     0.000137


     Computing stress (Cartesian axis) and pressure

          total   stress  (Ry/bohr**3)                   (kbar)     P=      -61.99
  -0.00034625  -0.00077472   0.00035029          -50.94     -113.97       51.53
  -0.00077472  -0.00120352  -0.00002990         -113.97     -177.04       -4.40
   0.00035029  -0.00002990   0.00028564           51.53       -4.40       42.02

     Energy error            =      6.3E-03 Ry
     Gradient error          =      9.9E-02 Ry/Bohr
     Cell gradient error     =      1.8E+02 kbar

     number of scf cycles    =  30
     number of bfgs steps    =  26

     enthalpy           old  =    -216.6683526556 Ry
     enthalpy           new  =    -216.6746608962 Ry

     CASE: enthalpy          _new < enthalpy          _old

     new trust radius        =       0.0985225111 bohr
ibrav =      4
 celldm(1) =      9.70380398
 celldm(3) =      0.94575203
Input lattice vectors:
     1.04576702    -0.00728253     0.00049557
    -0.52919036     0.90276217    -0.00278244
     0.00068953    -0.00356167     0.98905372
New lattice vectors in INITIAL alat:
     1.04579249     0.00000000     0.00000000
    -0.52289625     0.90568287     0.00000000
     0.00000000     0.00000000     0.98906038
New lattice vectors in NEW alat (for information only):
     1.00000000     0.00000000     0.00000000
    -0.50000000     0.86602540     0.00000000
     0.00000000     0.00000000     0.94575203
Discrepancy in bohr =     0.007299    0.007476    0.003628
     new conv_thr            =       0.0000000063 Ry

     new unit-cell volume =    748.40031 a.u.^3 (   110.90148 Ang^3 )
     density =      2.69894 g/cm^3

CELL_PARAMETERS (alat=  9.27890000)
   1.045792495   0.000000000   0.000000000
  -0.522896247   0.905682868   0.000000000
   0.000000000   0.000000000   0.989060378

ATOMIC_POSITIONS (crystal)
Si               0.3234928335        0.4020706725        0.0194883275
Si               0.5356143057        0.0813266925        0.3130061943
Si               0.1475785398        0.5798227461        0.5355774077
O                0.3940913288        0.6103471148        0.7491690329
O                0.4117472437        0.6922026932        0.2617631779
O                0.2010715964        0.9311663408        0.5172233296
O                0.5856414121        0.3113708405        0.0486511988
O                0.8049928594        0.2845631127        0.5691468003
O                0.0091638807        0.1071817870        1.0857565309



     Writing config-only to output data dir ./tmp_quartz_ibrav4/quartz_ibrav4.save/ :
     XML data file
     NEW-OLD atomic charge density approx. for the potential
     New effective cutoffs (rho, wfc):  591.52   74.54

     total cpu time spent up to now is    11768.1 secs

     Self-consistent Calculation

     iteration #  1     ecut=    60.00 Ry     beta= 0.30
     Davidson diagonalization with overlap
     ethr =  1.00E-06,  avg # of iterations = 10.0

     total cpu time spent up to now is    11821.0 secs

     total energy              =    -216.69558887 Ry
     estimated scf accuracy    <       0.00477073 Ry

     iteration #  2     ecut=    60.00 Ry     beta= 0.30
     Davidson diagonalization with overlap
     ethr =  9.94E-06,  avg # of iterations =  1.0

     total cpu time spent up to now is    11834.9 secs

     total energy              =    -216.69514305 Ry
     estimated scf accuracy    <       0.00151749 Ry

     iteration #  3     ecut=    60.00 Ry     beta= 0.30
     Davidson diagonalization with overlap
     ethr =  3.16E-06,  avg # of iterations =  2.0

     total cpu time spent up to now is    11853.5 secs

     total energy              =    -216.69537537 Ry
     estimated scf accuracy    <       0.00012809 Ry

     iteration #  4     ecut=    60.00 Ry     beta= 0.30
     Davidson diagonalization with overlap
     ethr =  2.67E-07,  avg # of iterations =  2.0

     total cpu time spent up to now is    11871.0 secs

     total energy              =    -216.69538755 Ry
     estimated scf accuracy    <       0.00003099 Ry

     iteration #  5     ecut=    60.00 Ry     beta= 0.30
     Davidson diagonalization with overlap
     ethr =  6.46E-08,  avg # of iterations =  2.1

     total cpu time spent up to now is    11889.6 secs

     total energy              =    -216.69539252 Ry
     estimated scf accuracy    <       0.00000436 Ry

     iteration #  6     ecut=    60.00 Ry     beta= 0.30
     Davidson diagonalization with overlap
     ethr =  9.09E-09,  avg # of iterations =  2.8

     total cpu time spent up to now is    11907.8 secs

     total energy              =    -216.69539385 Ry
     estimated scf accuracy    <       0.00000080 Ry

     iteration #  7     ecut=    60.00 Ry     beta= 0.30
     Davidson diagonalization with overlap
     ethr =  1.67E-09,  avg # of iterations =  2.2

     total cpu time spent up to now is    11926.7 secs

     total energy              =    -216.69539429 Ry
     estimated scf accuracy    <       0.00000013 Ry

     iteration #  8     ecut=    60.00 Ry     beta= 0.30
     Davidson diagonalization with overlap
     ethr =  2.66E-10,  avg # of iterations =  4.3

     total cpu time spent up to now is    11948.8 secs

     total energy              =    -216.69539442 Ry
     estimated scf accuracy    <       0.00000010 Ry

     iteration #  9     ecut=    60.00 Ry     beta= 0.30
     Davidson diagonalization with overlap
     ethr =  2.03E-10,  avg # of iterations =  3.5

     total cpu time spent up to now is    11970.7 secs

     total energy              =    -216.69539454 Ry
     estimated scf accuracy    <       0.00000003 Ry

     iteration # 10     ecut=    60.00 Ry     beta= 0.30
     Davidson diagonalization with overlap
     ethr =  6.70E-11,  avg # of iterations =  2.7

     total cpu time spent up to now is    11989.9 secs

     End of self-consistent calculation

     Number of k-points >= 100: set verbosity='high' to print the bands.

     highest occupied level (ev):     3.9901

!    total energy              =    -216.69539452 Ry
     estimated scf accuracy    <          9.0E-10 Ry

     The total energy is the sum of the following terms:
     one-electron contribution =     -94.70363064 Ry
     hartree contribution      =      72.65926426 Ry
     xc contribution           =     -49.17452384 Ry
     ewald contribution        =    -145.47650430 Ry

     convergence has been achieved in  10 iterations

     Forces acting on atoms (cartesian axes, Ry/au):

     atom    1 type  1   force =    -0.02909550   -0.05567748    0.01510009
     atom    2 type  1   force =     0.02873408    0.02659703    0.04155830
     atom    3 type  1   force =    -0.07692286    0.03023208   -0.02737290
     atom    4 type  2   force =     0.02546159   -0.03642983    0.04041528
     atom    5 type  2   force =    -0.00928616   -0.01304683   -0.02739789
     atom    6 type  2   force =     0.05937912    0.00519367   -0.03309026
     atom    7 type  2   force =     0.02908469   -0.03609887    0.06938040
     atom    8 type  2   force =     0.00029487    0.01107175   -0.08898599
     atom    9 type  2   force =    -0.02764984    0.06815848    0.01039297

     Total force =     0.211662     Total SCF correction =     0.000052


     Computing stress (Cartesian axis) and pressure

          total   stress  (Ry/bohr**3)                   (kbar)     P=      -55.13
  -0.00028785  -0.00069161   0.00037569          -42.34     -101.74       55.27
  -0.00069161  -0.00118447  -0.00008374         -101.74     -174.24      -12.32
   0.00037569  -0.00008374   0.00034795           55.27      -12.32       51.19

     Energy error            =      2.1E-02 Ry
     Gradient error          =      8.9E-02 Ry/Bohr
     Cell gradient error     =      1.7E+02 kbar

     number of scf cycles    =  31
     number of bfgs steps    =  27

     enthalpy           old  =    -216.6746608962 Ry
     enthalpy           new  =    -216.6953945184 Ry

     CASE: enthalpy          _new < enthalpy          _old

     new trust radius        =       0.1476853072 bohr
ibrav =      4
 celldm(1) =      9.63456030
 celldm(3) =      0.97464800
Input lattice vectors:
     1.03832679    -0.00152239     0.00208780
    -0.52048182     0.89711332    -0.00215738
     0.00249422    -0.00191906     1.01200137
New lattice vectors in INITIAL alat:
     1.03833001     0.00000000     0.00000000
    -0.51916500     0.89922016     0.00000000
     0.00000000     0.00000000     1.01200627
New lattice vectors in NEW alat (for information only):
     1.00000000     0.00000000     0.00000000
    -0.50000000     0.86602540     0.00000000
     0.00000000     0.00000000     0.97464800
Discrepancy in bohr =     0.002584    0.003290    0.003147
     new conv_thr            =       0.0000000089 Ry

     new unit-cell volume =    754.87341 a.u.^3 (   111.86070 Ang^3 )
     density =      2.67580 g/cm^3

CELL_PARAMETERS (alat=  9.27890000)
   1.038330007   0.000000000   0.000000000
  -0.519165003   0.899220163   0.000000000
   0.000000000   0.000000000   1.012006266

ATOMIC_POSITIONS (crystal)
Si               0.3153609076        0.3914167423        0.0147125943
Si               0.5447573598        0.0858748229        0.3142388849
Si               0.1527440023        0.5847065866        0.5322459182
O                0.3806950942        0.6066668119        0.7569159147
O                0.4104689553        0.6879043014        0.2670896997
O                0.2164958880        0.9456042547        0.5142401146
O                0.5833640788        0.3039125214        0.0553026240
O                0.8088133668        0.2886277546        0.5554400189
O                0.0006943472        0.1053382042        1.0895962308



     Writing config-only to output data dir ./tmp_quartz_ibrav4/quartz_ibrav4.save/ :
     XML data file
     NEW-OLD atomic charge density approx. for the potential
     New effective cutoffs (rho, wfc):  566.03   71.28

     total cpu time spent up to now is    11997.3 secs

     Self-consistent Calculation

     iteration #  1     ecut=    60.00 Ry     beta= 0.30
     Davidson diagonalization with overlap
     ethr =  1.00E-06,  avg # of iterations = 11.0

     total cpu time spent up to now is    12054.8 secs

     total energy              =    -216.73632343 Ry
     estimated scf accuracy    <       0.01481386 Ry

     iteration #  2     ecut=    60.00 Ry     beta= 0.30
     Davidson diagonalization with overlap
     ethr =  3.09E-05,  avg # of iterations =  1.0

     total cpu time spent up to now is    12068.5 secs

     total energy              =    -216.73531489 Ry
     estimated scf accuracy    <       0.00393378 Ry

     iteration #  3     ecut=    60.00 Ry     beta= 0.30
     Davidson diagonalization with overlap
     ethr =  8.20E-06,  avg # of iterations =  2.0

     total cpu time spent up to now is    12086.8 secs

     total energy              =    -216.73611797 Ry
     estimated scf accuracy    <       0.00041198 Ry

     iteration #  4     ecut=    60.00 Ry     beta= 0.30
     Davidson diagonalization with overlap
     ethr =  8.58E-07,  avg # of iterations =  2.0

     total cpu time spent up to now is    12105.1 secs

     total energy              =    -216.73614805 Ry
     estimated scf accuracy    <       0.00011368 Ry

     iteration #  5     ecut=    60.00 Ry     beta= 0.30
     Davidson diagonalization with overlap
     ethr =  2.37E-07,  avg # of iterations =  2.0

     total cpu time spent up to now is    12123.6 secs

     total energy              =    -216.73616372 Ry
     estimated scf accuracy    <       0.00002114 Ry

     iteration #  6     ecut=    60.00 Ry     beta= 0.30
     Davidson diagonalization with overlap
     ethr =  4.40E-08,  avg # of iterations =  2.6

     total cpu time spent up to now is    12143.2 secs

     total energy              =    -216.73616791 Ry
     estimated scf accuracy    <       0.00000580 Ry

     iteration #  7     ecut=    60.00 Ry     beta= 0.30
     Davidson diagonalization with overlap
     ethr =  1.21E-08,  avg # of iterations =  2.0

     total cpu time spent up to now is    12161.5 secs

     total energy              =    -216.73616949 Ry
     estimated scf accuracy    <       0.00000070 Ry

     iteration #  8     ecut=    60.00 Ry     beta= 0.30
     Davidson diagonalization with overlap
     ethr =  1.47E-09,  avg # of iterations =  4.9

     total cpu time spent up to now is    12186.4 secs

     total energy              =    -216.73616951 Ry
     estimated scf accuracy    <       0.00000184 Ry

     iteration #  9     ecut=    60.00 Ry     beta= 0.30
     Davidson diagonalization with overlap
     ethr =  1.47E-09,  avg # of iterations =  5.0

     total cpu time spent up to now is    12210.8 secs

     total energy              =    -216.73617014 Ry
     estimated scf accuracy    <       0.00000010 Ry

     iteration # 10     ecut=    60.00 Ry     beta= 0.30
     Davidson diagonalization with overlap
     ethr =  2.05E-10,  avg # of iterations =  4.7

     total cpu time spent up to now is    12232.7 secs

     total energy              =    -216.73617028 Ry
     estimated scf accuracy    <       0.00000004 Ry

     iteration # 11     ecut=    60.00 Ry     beta= 0.30
     Davidson diagonalization with overlap
     ethr =  8.84E-11,  avg # of iterations =  2.0

     total cpu time spent up to now is    12248.2 secs

     total energy              =    -216.73617034 Ry
     estimated scf accuracy    <       0.00000001 Ry

     iteration # 12     ecut=    60.00 Ry     beta= 0.30
     Davidson diagonalization with overlap
     ethr =  2.40E-11,  avg # of iterations =  4.0

     total cpu time spent up to now is    12268.5 secs

     End of self-consistent calculation

     Number of k-points >= 100: set verbosity='high' to print the bands.

     highest occupied level (ev):     3.8271

!    total energy              =    -216.73617039 Ry
     estimated scf accuracy    <          2.6E-09 Ry

     The total energy is the sum of the following terms:
     one-electron contribution =     -97.73186507 Ry
     hartree contribution      =      73.96809582 Ry
     xc contribution           =     -49.23272913 Ry
     ewald contribution        =    -143.73967201 Ry

     convergence has been achieved in  12 iterations

     Forces acting on atoms (cartesian axes, Ry/au):

     atom    1 type  1   force =    -0.01588240   -0.03210546    0.04271481
     atom    2 type  1   force =     0.03094105    0.00001707    0.02787373
     atom    3 type  1   force =    -0.07703870    0.04455954   -0.03370020
     atom    4 type  2   force =     0.03699481   -0.02937256    0.04405353
     atom    5 type  2   force =    -0.00036834   -0.02225209   -0.03848850
     atom    6 type  2   force =     0.04777252   -0.01301647   -0.02491678
     atom    7 type  2   force =     0.00456768   -0.01344767    0.03488123
     atom    8 type  2   force =     0.00941171    0.02171113   -0.06081694
     atom    9 type  2   force =    -0.03639833    0.04390650    0.00839913

     Total force =     0.179219     Total SCF correction =     0.000058


     Computing stress (Cartesian axis) and pressure

          total   stress  (Ry/bohr**3)                   (kbar)     P=      -46.92
  -0.00022561  -0.00048375   0.00042539          -33.19      -71.16       62.58
  -0.00048375  -0.00104480  -0.00013492          -71.16     -153.69      -19.85
   0.00042539  -0.00013492   0.00031357           62.58      -19.85       46.13

     Energy error            =      4.1E-02 Ry
     Gradient error          =      7.7E-02 Ry/Bohr
     Cell gradient error     =      1.5E+02 kbar

     number of scf cycles    =  32
     number of bfgs steps    =  28

     enthalpy           old  =    -216.6953945184 Ry
     enthalpy           new  =    -216.7361703918 Ry

     CASE: enthalpy          _new < enthalpy          _old

     new trust radius        =       0.2201815479 bohr
ibrav =      4
 celldm(1) =      9.53033137
 celldm(3) =      1.01477120
Input lattice vectors:
     1.02708500    -0.00166119     0.00470180
    -0.51498113     0.88630980    -0.00468681
     0.00554392    -0.00353639     1.04224782
New lattice vectors in INITIAL alat:
     1.02709711     0.00000000     0.00000000
    -0.51354856     0.88949219     0.00000000
     0.00000000     0.00000000     1.04226857
New lattice vectors in NEW alat (for information only):
     1.00000000     0.00000000     0.00000000
    -0.50000000     0.86602540     0.00000000
     0.00000000     0.00000000     1.01477120
Discrepancy in bohr =     0.004987    0.005843    0.006576
     new conv_thr            =       0.0000000077 Ry

     new unit-cell volume =    760.71638 a.u.^3 (   112.72654 Ang^3 )
     density =      2.65525 g/cm^3

CELL_PARAMETERS (alat=  9.27890000)
   1.027097110   0.000000000   0.000000000
  -0.513548555   0.889492189   0.000000000
   0.000000000   0.000000000   1.042268569

ATOMIC_POSITIONS (crystal)
Si               0.3007766052        0.3741751267        0.0094965118
Si               0.5607620660        0.0932897225        0.3141466019
Si               0.1636686208        0.5967097119        0.5248405649
O                0.3647347473        0.6039847753        0.7692156737
O                0.4053634166        0.6777755077        0.2752832211
O                0.2385474920        0.9682310219        0.5101143012
O                0.5750228024        0.2912644069        0.0593221432
O                0.8241597263        0.2967423812        0.5363703983
O               -0.0196414767        0.0978793460        1.1009925838



     Writing config-only to output data dir ./tmp_quartz_ibrav4/quartz_ibrav4.save/ :
     XML data file
     NEW-OLD atomic charge density approx. for the potential
     New effective cutoffs (rho, wfc):  535.03   67.30

     total cpu time spent up to now is    12275.8 secs

     Self-consistent Calculation

     iteration #  1     ecut=    60.00 Ry     beta= 0.30
     Davidson diagonalization with overlap
     ethr =  1.00E-06,  avg # of iterations = 12.0

     total cpu time spent up to now is    12340.7 secs

     total energy              =    -216.77426953 Ry
     estimated scf accuracy    <       0.03412148 Ry

     iteration #  2     ecut=    60.00 Ry     beta= 0.30
     Davidson diagonalization with overlap
     ethr =  7.11E-05,  avg # of iterations =  1.2

     total cpu time spent up to now is    12354.7 secs

     total energy              =    -216.77174273 Ry
     estimated scf accuracy    <       0.00960242 Ry

     iteration #  3     ecut=    60.00 Ry     beta= 0.30
     Davidson diagonalization with overlap
     ethr =  2.00E-05,  avg # of iterations =  2.0

     total cpu time spent up to now is    12373.0 secs

     total energy              =    -216.77326024 Ry
     estimated scf accuracy    <       0.00101211 Ry

     iteration #  4     ecut=    60.00 Ry     beta= 0.30
     Davidson diagonalization with overlap
     ethr =  2.11E-06,  avg # of iterations =  2.0

     total cpu time spent up to now is    12390.5 secs

     total energy              =    -216.77337304 Ry
     estimated scf accuracy    <       0.00017669 Ry

     iteration #  5     ecut=    60.00 Ry     beta= 0.30
     Davidson diagonalization with overlap
     ethr =  3.68E-07,  avg # of iterations =  2.0

     total cpu time spent up to now is    12408.3 secs

     total energy              =    -216.77339160 Ry
     estimated scf accuracy    <       0.00004033 Ry

     iteration #  6     ecut=    60.00 Ry     beta= 0.30
     Davidson diagonalization with overlap
     ethr =  8.40E-08,  avg # of iterations =  3.7

     total cpu time spent up to now is    12427.9 secs

     total energy              =    -216.77339890 Ry
     estimated scf accuracy    <       0.00001141 Ry

     iteration #  7     ecut=    60.00 Ry     beta= 0.30
     Davidson diagonalization with overlap
     ethr =  2.38E-08,  avg # of iterations =  3.1

     total cpu time spent up to now is    12447.4 secs

     total energy              =    -216.77340236 Ry
     estimated scf accuracy    <       0.00000225 Ry

     iteration #  8     ecut=    60.00 Ry     beta= 0.30
     Davidson diagonalization with overlap
     ethr =  4.69E-09,  avg # of iterations =  2.0

     total cpu time spent up to now is    12465.8 secs

     total energy              =    -216.77340337 Ry
     estimated scf accuracy    <       0.00000039 Ry

     iteration #  9     ecut=    60.00 Ry     beta= 0.30
     Davidson diagonalization with overlap
     ethr =  8.21E-10,  avg # of iterations =  3.3

     total cpu time spent up to now is    12487.3 secs

     total energy              =    -216.77340380 Ry
     estimated scf accuracy    <       0.00000012 Ry

     iteration # 10     ecut=    60.00 Ry     beta= 0.30
     Davidson diagonalization with overlap
     ethr =  2.59E-10,  avg # of iterations =  3.1

     total cpu time spent up to now is    12507.1 secs

     total energy              =    -216.77340398 Ry
     estimated scf accuracy    <       0.00000003 Ry

     iteration # 11     ecut=    60.00 Ry     beta= 0.30
     Davidson diagonalization with overlap
     ethr =  5.98E-11,  avg # of iterations =  2.1

     total cpu time spent up to now is    12525.5 secs

     End of self-consistent calculation

     Number of k-points >= 100: set verbosity='high' to print the bands.

     highest occupied level (ev):     3.6360

!    total energy              =    -216.77340412 Ry
     estimated scf accuracy    <          6.8E-09 Ry

     The total energy is the sum of the following terms:
     one-electron contribution =    -101.55929107 Ry
     hartree contribution      =      75.71307675 Ry
     xc contribution           =     -49.29385931 Ry
     ewald contribution        =    -141.63333049 Ry

     convergence has been achieved in  11 iterations

     Forces acting on atoms (cartesian axes, Ry/au):

     atom    1 type  1   force =    -0.02293706   -0.02271000    0.06641060
     atom    2 type  1   force =     0.04406684   -0.03065469   -0.00280068
     atom    3 type  1   force =    -0.05668337    0.05147074    0.01762938
     atom    4 type  2   force =     0.02307302   -0.02563892    0.02593022
     atom    5 type  2   force =     0.02243652   -0.00975032   -0.06352294
     atom    6 type  2   force =     0.03811987   -0.03462967   -0.01490762
     atom    7 type  2   force =    -0.02078142    0.00742335   -0.00179486
     atom    8 type  2   force =     0.00361864    0.02713908   -0.02333858
     atom    9 type  2   force =    -0.03091304    0.03735042   -0.00360551

     Total force =     0.167431     Total SCF correction =     0.000109


     Computing stress (Cartesian axis) and pressure

          total   stress  (Ry/bohr**3)                   (kbar)     P=      -38.71
  -0.00019092  -0.00023791   0.00036682          -28.09      -35.00       53.96
  -0.00023791  -0.00084316  -0.00013444          -35.00     -124.03      -19.78
   0.00036682  -0.00013444   0.00024472           53.96      -19.78       36.00

     Energy error            =      3.7E-02 Ry
     Gradient error          =      6.6E-02 Ry/Bohr
     Cell gradient error     =      1.2E+02 kbar

     number of scf cycles    =  33
     number of bfgs steps    =  29

     enthalpy           old  =    -216.7361703918 Ry
     enthalpy           new  =    -216.7734041227 Ry

     CASE: enthalpy          _new < enthalpy          _old

     new trust radius        =       0.2673458941 bohr
ibrav =      4
 celldm(1) =      9.30416883
 celldm(3) =      1.08964534
Input lattice vectors:
     1.00270545    -0.00439807     0.00404579
    -0.50516157     0.86474028    -0.00297455
     0.00444969    -0.00110459     1.09260310
New lattice vectors in INITIAL alat:
     1.00272326     0.00000000     0.00000000
    -0.50136163     0.86838381     0.00000000
     0.00000000     0.00000000     1.09261272
New lattice vectors in NEW alat (for information only):
     1.00000000     0.00000000     0.00000000
    -0.50000000     0.86602540     0.00000000
     0.00000000     0.00000000     1.08964534
Discrepancy in bohr =     0.005976    0.006047    0.004585
     new conv_thr            =       0.0000000066 Ry

     new unit-cell volume =    760.06117 a.u.^3 (   112.62944 Ang^3 )
     density =      2.65754 g/cm^3

CELL_PARAMETERS (alat=  9.27890000)
   1.002723258   0.000000000   0.000000000
  -0.501361629   0.868383814   0.000000000
   0.000000000   0.000000000   1.092612723

ATOMIC_POSITIONS (crystal)
Si               0.2846697739        0.3550287894        0.0070398976
Si               0.5820680720        0.0957750760        0.3133671297
Si               0.1697200245        0.6126927842        0.5330005592
O                0.3387235923        0.5980471432        0.7822818316
O                0.4177910237        0.6748629448        0.2746345567
O                0.2581019805        0.9882804404        0.4942045282
O                0.5720157090        0.2839861427        0.0734371368
O                0.8315684475        0.3005247591        0.5146119316
O               -0.0412646234        0.0908539202        1.1072044286



     Writing config-only to output data dir ./tmp_quartz_ibrav4/quartz_ibrav4.save/ :
     XML data file
     NEW-OLD atomic charge density approx. for the potential
     New effective cutoffs (rho, wfc):  490.22   61.43

     negative rho (up, down):  5.760E-07 0.000E+00

     total cpu time spent up to now is    12533.1 secs

     Self-consistent Calculation

     iteration #  1     ecut=    60.00 Ry     beta= 0.30
     Davidson diagonalization with overlap
     ethr =  1.00E-06,  avg # of iterations = 12.3

     total cpu time spent up to now is    12600.5 secs

     total energy              =    -216.79090971 Ry
     estimated scf accuracy    <       0.06210957 Ry

     iteration #  2     ecut=    60.00 Ry     beta= 0.30
     Davidson diagonalization with overlap
     ethr =  1.29E-04,  avg # of iterations =  1.9

     total cpu time spent up to now is    12615.1 secs

     total energy              =    -216.78851401 Ry
     estimated scf accuracy    <       0.01410071 Ry

     iteration #  3     ecut=    60.00 Ry     beta= 0.30
     Davidson diagonalization with overlap
     ethr =  2.94E-05,  avg # of iterations =  2.0

     total cpu time spent up to now is    12633.5 secs

     total energy              =    -216.79144931 Ry
     estimated scf accuracy    <       0.00162047 Ry

     iteration #  4     ecut=    60.00 Ry     beta= 0.30
     Davidson diagonalization with overlap
     ethr =  3.38E-06,  avg # of iterations =  2.0

     total cpu time spent up to now is    12651.3 secs

     total energy              =    -216.79154979 Ry
     estimated scf accuracy    <       0.00041932 Ry

     iteration #  5     ecut=    60.00 Ry     beta= 0.30
     Davidson diagonalization with overlap
     ethr =  8.74E-07,  avg # of iterations =  2.0

     total cpu time spent up to now is    12669.7 secs

     total energy              =    -216.79161355 Ry
     estimated scf accuracy    <       0.00005820 Ry

     iteration #  6     ecut=    60.00 Ry     beta= 0.30
     Davidson diagonalization with overlap
     ethr =  1.21E-07,  avg # of iterations =  2.5

     total cpu time spent up to now is    12688.9 secs

     total energy              =    -216.79162588 Ry
     estimated scf accuracy    <       0.00001322 Ry

     iteration #  7     ecut=    60.00 Ry     beta= 0.30
     Davidson diagonalization with overlap
     ethr =  2.75E-08,  avg # of iterations =  2.0

     total cpu time spent up to now is    12708.5 secs

     total energy              =    -216.79162965 Ry
     estimated scf accuracy    <       0.00000168 Ry

     iteration #  8     ecut=    60.00 Ry     beta= 0.30
     Davidson diagonalization with overlap
     ethr =  3.50E-09,  avg # of iterations =  2.4

     total cpu time spent up to now is    12727.9 secs

     total energy              =    -216.79163026 Ry
     estimated scf accuracy    <       0.00000081 Ry

     iteration #  9     ecut=    60.00 Ry     beta= 0.30
     Davidson diagonalization with overlap
     ethr =  1.68E-09,  avg # of iterations =  2.9

     total cpu time spent up to now is    12747.7 secs

     total energy              =    -216.79163087 Ry
     estimated scf accuracy    <       0.00000023 Ry

     iteration # 10     ecut=    60.00 Ry     beta= 0.30
     Davidson diagonalization with overlap
     ethr =  4.73E-10,  avg # of iterations =  2.0

     total cpu time spent up to now is    12766.6 secs

     total energy              =    -216.79163109 Ry
     estimated scf accuracy    <       0.00000003 Ry

     iteration # 11     ecut=    60.00 Ry     beta= 0.30
     Davidson diagonalization with overlap
     ethr =  5.91E-11,  avg # of iterations =  3.2

     total cpu time spent up to now is    12787.2 secs

     total energy              =    -216.79163120 Ry
     estimated scf accuracy    <          6.8E-09 Ry

     iteration # 12     ecut=    60.00 Ry     beta= 0.30
     Davidson diagonalization with overlap
     ethr =  1.42E-11,  avg # of iterations =  2.9

     total cpu time spent up to now is    12807.7 secs

     End of self-consistent calculation

     Number of k-points >= 100: set verbosity='high' to print the bands.

     highest occupied level (ev):     3.5016

!    total energy              =    -216.79163120 Ry
     estimated scf accuracy    <          2.1E-09 Ry

     The total energy is the sum of the following terms:
     one-electron contribution =    -105.88681899 Ry
     hartree contribution      =      77.96245141 Ry
     xc contribution           =     -49.40259926 Ry
     ewald contribution        =    -139.46466437 Ry

     convergence has been achieved in  12 iterations

     Forces acting on atoms (cartesian axes, Ry/au):

     atom    1 type  1   force =     0.00099898    0.02535780    0.09599764
     atom    2 type  1   force =     0.03317186   -0.09524260   -0.10687372
     atom    3 type  1   force =     0.00730962    0.04263829   -0.06076395
     atom    4 type  2   force =     0.03039790   -0.02341795    0.02752178
     atom    5 type  2   force =    -0.03008461   -0.01548144    0.01835415
     atom    6 type  2   force =    -0.00034639   -0.05253554    0.02814174
     atom    7 type  2   force =    -0.05707345    0.02638537   -0.06111073
     atom    8 type  2   force =     0.04592385    0.07959157    0.06340104
     atom    9 type  2   force =    -0.03029777    0.01270452   -0.00466796

     Total force =     0.255994     Total SCF correction =     0.000136


     Computing stress (Cartesian axis) and pressure

          total   stress  (Ry/bohr**3)                   (kbar)     P=      -16.31
   0.00001001   0.00008227   0.00050379            1.47       12.10       74.11
   0.00008227  -0.00040736  -0.00000049           12.10      -59.93       -0.07
   0.00050379  -0.00000049   0.00006475           74.11       -0.07        9.53

     Energy error            =      1.8E-02 Ry
     Gradient error          =      1.1E-01 Ry/Bohr
     Cell gradient error     =      7.4E+01 kbar

     number of scf cycles    =  34
     number of bfgs steps    =  30

     enthalpy           old  =    -216.7734041227 Ry
     enthalpy           new  =    -216.7916312043 Ry

     CASE: enthalpy          _new < enthalpy          _old

     new trust radius        =       0.1998379062 bohr
ibrav =      4
 celldm(1) =      9.28656795
 celldm(3) =      1.09598938
Input lattice vectors:
     1.00078522    -0.00452019     0.00787181
    -0.50430721     0.86241328    -0.00500167
     0.00908836    -0.00196400     1.09685568
New lattice vectors in INITIAL alat:
     1.00082639     0.00000000     0.00000000
    -0.50041319     0.86674107     0.00000000
     0.00000000     0.00000000     1.09689509
New lattice vectors in NEW alat (for information only):
     1.00000000     0.00000000     0.00000000
    -0.50000000     0.86602540     0.00000000
     0.00000000     0.00000000     1.09598938
Discrepancy in bohr =     0.009077    0.007675    0.009298
     new conv_thr            =       0.0000000100 Ry

     new unit-cell volume =    760.15595 a.u.^3 (   112.64349 Ang^3 )
     density =      2.65721 g/cm^3

CELL_PARAMETERS (alat=  9.27890000)
   1.000826386   0.000000000   0.000000000
  -0.500413193   0.866741075   0.000000000
   0.000000000   0.000000000   1.096895093

ATOMIC_POSITIONS (crystal)
Si               0.2707645411        0.3456205681        0.0111169129
Si               0.5930879577        0.1003271225        0.3059841303
Si               0.1814197285        0.6230195518        0.5263478387
O                0.3362560312        0.6008394614        0.7893394421
O                0.4071586080        0.6651893516        0.2791802015
O                0.2683644383        0.9970399372        0.4982408567
O                0.5587423463        0.2762338107        0.0606218673
O                0.8547580800        0.3082524688        0.5085908699
O               -0.0571577310        0.0835297280        1.1203598805



     Writing config-only to output data dir ./tmp_quartz_ibrav4/quartz_ibrav4.save/ :
     XML data file
     NEW-OLD atomic charge density approx. for the potential
     New effective cutoffs (rho, wfc):  486.94   60.97

     negative rho (up, down):  6.331E-06 0.000E+00

     total cpu time spent up to now is    12815.4 secs

     Self-consistent Calculation

     iteration #  1     ecut=    60.00 Ry     beta= 0.30
     Davidson diagonalization with overlap
     ethr =  1.00E-06,  avg # of iterations = 12.0

     negative rho (up, down):  2.088E-06 0.000E+00

     total cpu time spent up to now is    12880.2 secs

     total energy              =    -216.81929615 Ry
     estimated scf accuracy    <       0.02764984 Ry

     iteration #  2     ecut=    60.00 Ry     beta= 0.30
     Davidson diagonalization with overlap
     ethr =  5.76E-05,  avg # of iterations =  1.0

     total cpu time spent up to now is    12894.2 secs

     total energy              =    -216.81614146 Ry
     estimated scf accuracy    <       0.00863881 Ry

     iteration #  3     ecut=    60.00 Ry     beta= 0.30
     Davidson diagonalization with overlap
     ethr =  1.80E-05,  avg # of iterations =  2.0

     total cpu time spent up to now is    12912.4 secs

     total energy              =    -216.81758936 Ry
     estimated scf accuracy    <       0.00053120 Ry

     iteration #  4     ecut=    60.00 Ry     beta= 0.30
     Davidson diagonalization with overlap
     ethr =  1.11E-06,  avg # of iterations =  3.7

     total cpu time spent up to now is    12931.2 secs

     total energy              =    -216.81763844 Ry
     estimated scf accuracy    <       0.00015701 Ry

     iteration #  5     ecut=    60.00 Ry     beta= 0.30
     Davidson diagonalization with overlap
     ethr =  3.27E-07,  avg # of iterations =  2.0

     total cpu time spent up to now is    12949.5 secs

     total energy              =    -216.81766757 Ry
     estimated scf accuracy    <       0.00002441 Ry

     iteration #  6     ecut=    60.00 Ry     beta= 0.30
     Davidson diagonalization with overlap
     ethr =  5.09E-08,  avg # of iterations =  2.1

     total cpu time spent up to now is    12967.8 secs

     total energy              =    -216.81767240 Ry
     estimated scf accuracy    <       0.00000495 Ry

     iteration #  7     ecut=    60.00 Ry     beta= 0.30
     Davidson diagonalization with overlap
     ethr =  1.03E-08,  avg # of iterations =  2.1

     total cpu time spent up to now is    12987.0 secs

     total energy              =    -216.81767403 Ry
     estimated scf accuracy    <       0.00000101 Ry

     iteration #  8     ecut=    60.00 Ry     beta= 0.30
     Davidson diagonalization with overlap
     ethr =  2.10E-09,  avg # of iterations =  3.0

     total cpu time spent up to now is    13008.2 secs

     total energy              =    -216.81767480 Ry
     estimated scf accuracy    <       0.00000047 Ry

     iteration #  9     ecut=    60.00 Ry     beta= 0.30
     Davidson diagonalization with overlap
     ethr =  9.86E-10,  avg # of iterations =  2.0

     total cpu time spent up to now is    13026.3 secs

     total energy              =    -216.81767513 Ry
     estimated scf accuracy    <       0.00000003 Ry

     iteration # 10     ecut=    60.00 Ry     beta= 0.30
     Davidson diagonalization with overlap
     ethr =  5.23E-11,  avg # of iterations =  5.8

     total cpu time spent up to now is    13054.4 secs

     total energy              =    -216.81767526 Ry
     estimated scf accuracy    <       0.00000005 Ry

     iteration # 11     ecut=    60.00 Ry     beta= 0.30
     Davidson diagonalization with overlap
     ethr =  5.23E-11,  avg # of iterations =  3.3

     total cpu time spent up to now is    13075.2 secs

     End of self-consistent calculation

     Number of k-points >= 100: set verbosity='high' to print the bands.

     highest occupied level (ev):     3.1645

!    total energy              =    -216.81767535 Ry
     estimated scf accuracy    <          3.2E-09 Ry

     The total energy is the sum of the following terms:
     one-electron contribution =    -106.89178655 Ry
     hartree contribution      =      78.47688438 Ry
     xc contribution           =     -49.39146761 Ry
     ewald contribution        =    -139.01130557 Ry

     convergence has been achieved in  11 iterations

     Forces acting on atoms (cartesian axes, Ry/au):

     atom    1 type  1   force =    -0.02085542    0.04813585    0.06334399
     atom    2 type  1   force =     0.05241850   -0.06282104   -0.08485510
     atom    3 type  1   force =     0.01416999    0.03589453    0.02998444
     atom    4 type  2   force =     0.01248518   -0.03655517    0.01575474
     atom    5 type  2   force =     0.00348259    0.00429869   -0.02179348
     atom    6 type  2   force =     0.02275733   -0.03303617    0.00180054
     atom    7 type  2   force =    -0.03218135    0.00279915   -0.01833788
     atom    8 type  2   force =    -0.02415009    0.02076602    0.03048845
     atom    9 type  2   force =    -0.02812673    0.02051813   -0.01638569

     Total force =     0.178073     Total SCF correction =     0.000200


     Computing stress (Cartesian axis) and pressure

          total   stress  (Ry/bohr**3)                   (kbar)     P=      -28.73
  -0.00002683   0.00011046   0.00030473           -3.95       16.25       44.83
   0.00011046  -0.00038832   0.00006803           16.25      -57.12       10.01
   0.00030473   0.00006803  -0.00017073           44.83       10.01      -25.12

     Energy error            =      2.6E-02 Ry
     Gradient error          =      8.5E-02 Ry/Bohr
     Cell gradient error     =      5.7E+01 kbar

     number of scf cycles    =  35
     number of bfgs steps    =  31

     enthalpy           old  =    -216.7916312043 Ry
     enthalpy           new  =    -216.8176753473 Ry

     CASE: enthalpy          _new < enthalpy          _old

     new trust radius        =       0.1387420586 bohr
ibrav =      4
 celldm(1) =      9.31328283
 celldm(3) =      1.08384065
Input lattice vectors:
     1.00368923    -0.00272056     0.00502370
    -0.50420069     0.86059508     0.00044393
     0.00581429     0.00361643     1.08783526
New lattice vectors in INITIAL alat:
     1.00370549     0.00000000     0.00000000
    -0.50185274     0.86923445     0.00000000
     0.00000000     0.00000000     1.08785681
New lattice vectors in NEW alat (for information only):
     1.00000000     0.00000000     0.00000000
    -0.50000000     0.86602540     0.00000000
     0.00000000     0.00000000     1.08384065
Discrepancy in bohr =     0.005713    0.008964    0.006847
     new conv_thr            =       0.0000000085 Ry

     new unit-cell volume =    758.23607 a.u.^3 (   112.35899 Ang^3 )
     density =      2.66393 g/cm^3

CELL_PARAMETERS (alat=  9.27890000)
   1.003705485   0.000000000   0.000000000
  -0.501852743   0.869234448   0.000000000
   0.000000000   0.000000000   1.087856806

ATOMIC_POSITIONS (crystal)
Si               0.2679633794        0.3495859191        0.0205855571
Si               0.5998227618        0.0982769648        0.2944487100
Si               0.1862519942        0.6256633886        0.5295150206
O                0.3366193738        0.6002631663        0.7938845386
O                0.4061954091        0.6639410293        0.2756986577
O                0.2714869713        0.9940605883        0.5012700840
O                0.5508701229        0.2784556394        0.0541217270
O                0.8576408848        0.3108315544        0.5095275081
O               -0.0634568972        0.0789737498        1.1207301969



     Writing config-only to output data dir ./tmp_quartz_ibrav4/quartz_ibrav4.save/ :
     XML data file
     NEW-OLD atomic charge density approx. for the potential
     New effective cutoffs (rho, wfc):  494.02   61.96

     negative rho (up, down):  3.139E-06 0.000E+00

     total cpu time spent up to now is    13082.8 secs

     Self-consistent Calculation

     iteration #  1     ecut=    60.00 Ry     beta= 0.30
     Davidson diagonalization with overlap
     ethr =  1.00E-06,  avg # of iterations = 10.0

     negative rho (up, down):  7.982E-07 0.000E+00

     total cpu time spent up to now is    13136.3 secs

     total energy              =    -216.84481504 Ry
     estimated scf accuracy    <       0.00761005 Ry

     iteration #  2     ecut=    60.00 Ry     beta= 0.30
     Davidson diagonalization with overlap
     ethr =  1.59E-05,  avg # of iterations =  1.2

     total cpu time spent up to now is    13150.7 secs

     total energy              =    -216.84428186 Ry
     estimated scf accuracy    <       0.00224152 Ry

     iteration #  3     ecut=    60.00 Ry     beta= 0.30
     Davidson diagonalization with overlap
     ethr =  4.67E-06,  avg # of iterations =  2.0

     total cpu time spent up to now is    13169.5 secs

     total energy              =    -216.84457280 Ry
     estimated scf accuracy    <       0.00026076 Ry

     iteration #  4     ecut=    60.00 Ry     beta= 0.30
     Davidson diagonalization with overlap
     ethr =  5.43E-07,  avg # of iterations =  2.1

     total cpu time spent up to now is    13188.1 secs

     total energy              =    -216.84460540 Ry
     estimated scf accuracy    <       0.00004669 Ry

     iteration #  5     ecut=    60.00 Ry     beta= 0.30
     Davidson diagonalization with overlap
     ethr =  9.73E-08,  avg # of iterations =  2.3

     total cpu time spent up to now is    13207.2 secs

     total energy              =    -216.84461453 Ry
     estimated scf accuracy    <       0.00000616 Ry

     iteration #  6     ecut=    60.00 Ry     beta= 0.30
     Davidson diagonalization with overlap
     ethr =  1.28E-08,  avg # of iterations =  2.8

     total cpu time spent up to now is    13226.0 secs

     total energy              =    -216.84461622 Ry
     estimated scf accuracy    <       0.00000141 Ry

     iteration #  7     ecut=    60.00 Ry     beta= 0.30
     Davidson diagonalization with overlap
     ethr =  2.93E-09,  avg # of iterations =  2.0

     total cpu time spent up to now is    13244.5 secs

     total energy              =    -216.84461677 Ry
     estimated scf accuracy    <       0.00000013 Ry

     iteration #  8     ecut=    60.00 Ry     beta= 0.30
     Davidson diagonalization with overlap
     ethr =  2.66E-10,  avg # of iterations =  3.3

     total cpu time spent up to now is    13266.0 secs

     total energy              =    -216.84461699 Ry
     estimated scf accuracy    <       0.00000007 Ry

     iteration #  9     ecut=    60.00 Ry     beta= 0.30
     Davidson diagonalization with overlap
     ethr =  1.36E-10,  avg # of iterations =  4.6

     total cpu time spent up to now is    13287.8 secs

     total energy              =    -216.84461711 Ry
     estimated scf accuracy    <       0.00000003 Ry

     iteration # 10     ecut=    60.00 Ry     beta= 0.30
     Davidson diagonalization with overlap
     ethr =  6.16E-11,  avg # of iterations =  4.4

     total cpu time spent up to now is    13309.0 secs

     total energy              =    -216.84461717 Ry
     estimated scf accuracy    <          9.0E-09 Ry

     iteration # 11     ecut=    60.00 Ry     beta= 0.30
     Davidson diagonalization with overlap
     ethr =  1.88E-11,  avg # of iterations =  2.6

     total cpu time spent up to now is    13326.1 secs

     End of self-consistent calculation

     Number of k-points >= 100: set verbosity='high' to print the bands.

     highest occupied level (ev):     3.0026

!    total energy              =    -216.84461725 Ry
     estimated scf accuracy    <          5.9E-10 Ry

     The total energy is the sum of the following terms:
     one-electron contribution =    -106.47589920 Ry
     hartree contribution      =      78.28304971 Ry
     xc contribution           =     -49.40215578 Ry
     ewald contribution        =    -139.24961198 Ry

     convergence has been achieved in  11 iterations

     Forces acting on atoms (cartesian axes, Ry/au):

     atom    1 type  1   force =    -0.03326422    0.05417624    0.04278071
     atom    2 type  1   force =     0.05764765   -0.03552222   -0.04091594
     atom    3 type  1   force =    -0.00480171    0.01939942    0.02951348
     atom    4 type  2   force =     0.00955239   -0.03465623    0.01453218
     atom    5 type  2   force =     0.00220520   -0.00621410   -0.01980054
     atom    6 type  2   force =     0.03492052   -0.01628067   -0.02118022
     atom    7 type  2   force =     0.00729050   -0.01870399    0.00401438
     atom    8 type  2   force =    -0.03476716    0.01025729    0.00365166
     atom    9 type  2   force =    -0.03878318    0.02754426   -0.01259571

     Total force =     0.146429     Total SCF correction =     0.000068


     Computing stress (Cartesian axis) and pressure

          total   stress  (Ry/bohr**3)                   (kbar)     P=      -33.66
  -0.00005008  -0.00004420   0.00029218           -7.37       -6.50       42.98
  -0.00004420  -0.00044350   0.00004903           -6.50      -65.24        7.21
   0.00029218   0.00004903  -0.00019277           42.98        7.21      -28.36

     Energy error            =      2.7E-02 Ry
     Gradient error          =      5.8E-02 Ry/Bohr
     Cell gradient error     =      6.5E+01 kbar

     number of scf cycles    =  36
     number of bfgs steps    =  32

     enthalpy           old  =    -216.8176753473 Ry
     enthalpy           new  =    -216.8446172488 Ry

     CASE: enthalpy          _new < enthalpy          _old

     new trust radius        =       0.2070576935 bohr
ibrav =      4
 celldm(1) =      9.29114515
 celldm(3) =      1.08653487
Input lattice vectors:
     1.00131668    -0.00095481     0.00225393
    -0.50148524     0.86559648     0.00032376
     0.00240138     0.00172513     1.08796473
New lattice vectors in INITIAL alat:
     1.00131968     0.00000000     0.00000000
    -0.50065984     0.86716828     0.00000000
     0.00000000     0.00000000     1.08796875
New lattice vectors in NEW alat (for information only):
     1.00000000     0.00000000     0.00000000
    -0.50000000     0.86602540     0.00000000
     0.00000000     0.00000000     1.08653487
Discrepancy in bohr =     0.002448    0.001805    0.002957
     new conv_thr            =       0.0000000058 Ry

     new unit-cell volume =    754.71336 a.u.^3 (   111.83698 Ang^3 )
     density =      2.67637 g/cm^3

CELL_PARAMETERS (alat=  9.27890000)
   1.001319677   0.000000000   0.000000000
  -0.500659838   0.867168277   0.000000000
   0.000000000   0.000000000   1.087968749

ATOMIC_POSITIONS (crystal)
Si               0.2584167330        0.3491437974        0.0319560720
Si               0.6163879920        0.0975872829        0.2811428584
Si               0.1946556778        0.6327827682        0.5330497698
O                0.3303356855        0.5991325699        0.8034999907
O                0.4054160282        0.6592583472        0.2728916393
O                0.2836873739        0.9987157754        0.4998210205
O                0.5402064100        0.2753561184        0.0490899115
O                0.8645542067        0.3172970749        0.5035015864
O               -0.0802661070        0.0707782657        1.1248291514



     Writing config-only to output data dir ./tmp_quartz_ibrav4/quartz_ibrav4.save/ :
     XML data file
     NEW-OLD atomic charge density approx. for the potential
     New effective cutoffs (rho, wfc):  494.15   61.95

     negative rho (up, down):  2.139E-06 0.000E+00

     total cpu time spent up to now is    13333.5 secs

     Self-consistent Calculation

     iteration #  1     ecut=    60.00 Ry     beta= 0.30
     Davidson diagonalization with overlap
     ethr =  1.00E-06,  avg # of iterations = 11.0

     negative rho (up, down):  5.589E-07 0.000E+00

     total cpu time spent up to now is    13390.6 secs

     total energy              =    -216.86712549 Ry
     estimated scf accuracy    <       0.01444029 Ry

     iteration #  2     ecut=    60.00 Ry     beta= 0.30
     Davidson diagonalization with overlap
     ethr =  3.01E-05,  avg # of iterations =  1.0

     total cpu time spent up to now is    13404.0 secs

     total energy              =    -216.86518695 Ry
     estimated scf accuracy    <       0.00518923 Ry

     iteration #  3     ecut=    60.00 Ry     beta= 0.30
     Davidson diagonalization with overlap
     ethr =  1.08E-05,  avg # of iterations =  2.0

     total cpu time spent up to now is    13422.3 secs

     total energy              =    -216.86589669 Ry
     estimated scf accuracy    <       0.00025815 Ry

     iteration #  4     ecut=    60.00 Ry     beta= 0.30
     Davidson diagonalization with overlap
     ethr =  5.38E-07,  avg # of iterations =  2.1

     total cpu time spent up to now is    13439.0 secs

     total energy              =    -216.86592672 Ry
     estimated scf accuracy    <       0.00005494 Ry

     iteration #  5     ecut=    60.00 Ry     beta= 0.30
     Davidson diagonalization with overlap
     ethr =  1.14E-07,  avg # of iterations =  2.0

     total cpu time spent up to now is    13457.2 secs

     total energy              =    -216.86593602 Ry
     estimated scf accuracy    <       0.00000814 Ry

     iteration #  6     ecut=    60.00 Ry     beta= 0.30
     Davidson diagonalization with overlap
     ethr =  1.70E-08,  avg # of iterations =  3.4

     total cpu time spent up to now is    13476.7 secs

     total energy              =    -216.86593919 Ry
     estimated scf accuracy    <       0.00000162 Ry

     iteration #  7     ecut=    60.00 Ry     beta= 0.30
     Davidson diagonalization with overlap
     ethr =  3.37E-09,  avg # of iterations =  2.0

     total cpu time spent up to now is    13493.3 secs

     total energy              =    -216.86594024 Ry
     estimated scf accuracy    <       0.00000023 Ry

     iteration #  8     ecut=    60.00 Ry     beta= 0.30
     Davidson diagonalization with overlap
     ethr =  4.83E-10,  avg # of iterations =  4.6

     total cpu time spent up to now is    13515.0 secs

     total energy              =    -216.86594066 Ry
     estimated scf accuracy    <       0.00000014 Ry

     iteration #  9     ecut=    60.00 Ry     beta= 0.30
     Davidson diagonalization with overlap
     ethr =  2.90E-10,  avg # of iterations =  5.0

     total cpu time spent up to now is    13540.3 secs

     total energy              =    -216.86594092 Ry
     estimated scf accuracy    <       0.00000021 Ry

     iteration # 10     ecut=    60.00 Ry     beta= 0.30
     Davidson diagonalization with overlap
     ethr =  2.90E-10,  avg # of iterations =  3.6

     total cpu time spent up to now is    13560.4 secs

     End of self-consistent calculation

     Number of k-points >= 100: set verbosity='high' to print the bands.

     highest occupied level (ev):     3.0300

!    total energy              =    -216.86594118 Ry
     estimated scf accuracy    <          3.0E-09 Ry

     The total energy is the sum of the following terms:
     one-electron contribution =    -107.96117439 Ry
     hartree contribution      =      79.10295282 Ry
     xc contribution           =     -49.46056374 Ry
     ewald contribution        =    -138.54715587 Ry

     convergence has been achieved in  10 iterations

     Forces acting on atoms (cartesian axes, Ry/au):

     atom    1 type  1   force =    -0.01467385    0.05942803    0.02751401
     atom    2 type  1   force =     0.01137480   -0.02010523   -0.01132945
     atom    3 type  1   force =    -0.01232829    0.00451798    0.03019577
     atom    4 type  2   force =    -0.00061221   -0.03315113    0.00126594
     atom    5 type  2   force =    -0.00370973   -0.01495540   -0.00328218
     atom    6 type  2   force =     0.03524255   -0.01100615   -0.02950657
     atom    7 type  2   force =     0.02458119   -0.03560711    0.01521697
     atom    8 type  2   force =    -0.03412263    0.01287725    0.00276794
     atom    9 type  2   force =    -0.00575184    0.03800176   -0.03284243

     Total force =     0.125819     Total SCF correction =     0.000138


     Computing stress (Cartesian axis) and pressure

          total   stress  (Ry/bohr**3)                   (kbar)     P=      -24.95
   0.00007143  -0.00008132   0.00012884           10.51      -11.96       18.95
  -0.00008132  -0.00040668   0.00010162          -11.96      -59.82       14.95
   0.00012884   0.00010162  -0.00017357           18.95       14.95      -25.53

     Energy error            =      2.1E-02 Ry
     Gradient error          =      5.9E-02 Ry/Bohr
     Cell gradient error     =      6.0E+01 kbar

     number of scf cycles    =  37
     number of bfgs steps    =  33

     enthalpy           old  =    -216.8446172488 Ry
     enthalpy           new  =    -216.8659411790 Ry

     CASE: enthalpy          _new < enthalpy          _old

     new trust radius        =       0.2464776727 bohr
ibrav =      4
 celldm(1) =      9.38882035
 celldm(3) =      1.05663318
Input lattice vectors:
     1.01183514    -0.00464153     0.00098904
    -0.50993726     0.86919609     0.00128723
     0.00124730     0.00197431     1.06914779
New lattice vectors in INITIAL alat:
     1.01184627     0.00000000     0.00000000
    -0.50592313     0.87628457     0.00000000
     0.00000000     0.00000000     1.06915034
New lattice vectors in NEW alat (for information only):
     1.00000000     0.00000000     0.00000000
    -0.50000000     0.86602540     0.00000000
     0.00000000     0.00000000     1.05663318
Discrepancy in bohr =     0.004746    0.008247    0.002335
     new conv_thr            =       0.0000000059 Ry

     new unit-cell volume =    757.33489 a.u.^3 (   112.22545 Ang^3 )
     density =      2.66710 g/cm^3

CELL_PARAMETERS (alat=  9.27890000)
   1.011846269   0.000000000   0.000000000
  -0.505923135   0.876284574   0.000000000
   0.000000000   0.000000000   1.069150340

ATOMIC_POSITIONS (crystal)
Si               0.2698717089        0.3706340230        0.0493425625
Si               0.6189377016        0.0897977419        0.2684690068
Si               0.1879804602        0.6237023975        0.5439744906
O                0.3296811349        0.5946995431        0.8074466627
O                0.4082645326        0.6630815808        0.2647734315
O                0.2848453421        0.9846737993        0.4980573110
O                0.5394358812        0.2803010707        0.0484842034
O                0.8511239687        0.3217370062        0.5074052488
O               -0.0767467302        0.0714248375        1.1118290828



     Writing config-only to output data dir ./tmp_quartz_ibrav4/quartz_ibrav4.save/ :
     XML data file
     NEW-OLD atomic charge density approx. for the potential
     New effective cutoffs (rho, wfc):  509.90   64.07

     negative rho (up, down):  2.579E-06 0.000E+00

     total cpu time spent up to now is    13567.6 secs

     Self-consistent Calculation

     iteration #  1     ecut=    60.00 Ry     beta= 0.30
     Davidson diagonalization with overlap
     ethr =  1.00E-06,  avg # of iterations = 11.0

     negative rho (up, down):  1.475E-07 0.000E+00

     total cpu time spent up to now is    13625.0 secs

     total energy              =    -216.87183552 Ry
     estimated scf accuracy    <       0.01815539 Ry

     iteration #  2     ecut=    60.00 Ry     beta= 0.30
     Davidson diagonalization with overlap
     ethr =  3.78E-05,  avg # of iterations =  1.0

     total cpu time spent up to now is    13638.3 secs

     total energy              =    -216.87053524 Ry
     estimated scf accuracy    <       0.00530150 Ry

     iteration #  3     ecut=    60.00 Ry     beta= 0.30
     Davidson diagonalization with overlap
     ethr =  1.10E-05,  avg # of iterations =  2.0

     total cpu time spent up to now is    13656.2 secs

     total energy              =    -216.87135714 Ry
     estimated scf accuracy    <       0.00058384 Ry

     iteration #  4     ecut=    60.00 Ry     beta= 0.30
     Davidson diagonalization with overlap
     ethr =  1.22E-06,  avg # of iterations =  2.0

     total cpu time spent up to now is    13673.7 secs

     total energy              =    -216.87142556 Ry
     estimated scf accuracy    <       0.00012041 Ry

     iteration #  5     ecut=    60.00 Ry     beta= 0.30
     Davidson diagonalization with overlap
     ethr =  2.51E-07,  avg # of iterations =  2.0

     total cpu time spent up to now is    13692.2 secs

     total energy              =    -216.87144288 Ry
     estimated scf accuracy    <       0.00002128 Ry

     iteration #  6     ecut=    60.00 Ry     beta= 0.30
     Davidson diagonalization with overlap
     ethr =  4.43E-08,  avg # of iterations =  2.3

     total cpu time spent up to now is    13711.0 secs

     total energy              =    -216.87144739 Ry
     estimated scf accuracy    <       0.00000443 Ry

     iteration #  7     ecut=    60.00 Ry     beta= 0.30
     Davidson diagonalization with overlap
     ethr =  9.22E-09,  avg # of iterations =  2.0

     total cpu time spent up to now is    13729.2 secs

     total energy              =    -216.87144907 Ry
     estimated scf accuracy    <       0.00000071 Ry

     iteration #  8     ecut=    60.00 Ry     beta= 0.30
     Davidson diagonalization with overlap
     ethr =  1.49E-09,  avg # of iterations =  3.2

     total cpu time spent up to now is    13749.1 secs

     total energy              =    -216.87144937 Ry
     estimated scf accuracy    <       0.00000061 Ry

     iteration #  9     ecut=    60.00 Ry     beta= 0.30
     Davidson diagonalization with overlap
     ethr =  1.28E-09,  avg # of iterations =  3.1

     total cpu time spent up to now is    13770.4 secs

     total energy              =    -216.87144975 Ry
     estimated scf accuracy    <       0.00000016 Ry

     iteration # 10     ecut=    60.00 Ry     beta= 0.30
     Davidson diagonalization with overlap
     ethr =  3.24E-10,  avg # of iterations =  3.0

     total cpu time spent up to now is    13789.4 secs

     total energy              =    -216.87144987 Ry
     estimated scf accuracy    <       0.00000001 Ry

     iteration # 11     ecut=    60.00 Ry     beta= 0.30
     Davidson diagonalization with overlap
     ethr =  3.00E-11,  avg # of iterations =  3.0

     total cpu time spent up to now is    13808.3 secs

     total energy              =    -216.87144987 Ry
     estimated scf accuracy    <          6.3E-09 Ry

     iteration # 12     ecut=    60.00 Ry     beta= 0.30
     Davidson diagonalization with overlap
     ethr =  1.32E-11,  avg # of iterations =  2.8

     total cpu time spent up to now is    13827.2 secs

     End of self-consistent calculation

     Number of k-points >= 100: set verbosity='high' to print the bands.

     highest occupied level (ev):     3.0798

!    total energy              =    -216.87144989 Ry
     estimated scf accuracy    <          8.9E-10 Ry

     The total energy is the sum of the following terms:
     one-electron contribution =    -108.45259879 Ry
     hartree contribution      =      79.21283188 Ry
     xc contribution           =     -49.48101523 Ry
     ewald contribution        =    -138.15066775 Ry

     convergence has been achieved in  12 iterations

     Forces acting on atoms (cartesian axes, Ry/au):

     atom    1 type  1   force =     0.00509383   -0.03485941   -0.01144838
     atom    2 type  1   force =     0.00103820    0.01447599    0.02815519
     atom    3 type  1   force =    -0.03260292    0.02694559   -0.02917341
     atom    4 type  2   force =     0.00781559   -0.01758263   -0.00335721
     atom    5 type  2   force =    -0.01353053   -0.01558745    0.05829619
     atom    6 type  2   force =     0.02637865    0.00038205   -0.03079553
     atom    7 type  2   force =     0.02586955   -0.04085526    0.01714028
     atom    8 type  2   force =    -0.00601092    0.00615375   -0.02498437
     atom    9 type  2   force =    -0.01405145    0.06092737   -0.00383274

     Total force =     0.134613     Total SCF correction =     0.000039


     Computing stress (Cartesian axis) and pressure

          total   stress  (Ry/bohr**3)                   (kbar)     P=      -19.72
  -0.00011897  -0.00030987   0.00024275          -17.50      -45.58       35.71
  -0.00030987  -0.00039100   0.00018103          -45.58      -57.52       26.63
   0.00024275   0.00018103   0.00010781           35.71       26.63       15.86

     Energy error            =      5.5E-03 Ry
     Gradient error          =      6.1E-02 Ry/Bohr
     Cell gradient error     =      5.8E+01 kbar

     number of scf cycles    =  38
     number of bfgs steps    =  34

     enthalpy           old  =    -216.8659411790 Ry
     enthalpy           new  =    -216.8714498921 Ry

     CASE: enthalpy          _new < enthalpy          _old

     new trust radius        =       0.0885706603 bohr
ibrav =      4
 celldm(1) =      9.34161766
 celldm(3) =      1.07835602
Input lattice vectors:
     1.00674948    -0.00254578     0.00360839
    -0.50557945     0.86794933     0.00076277
     0.00397244     0.00326509     1.08563263
New lattice vectors in INITIAL alat:
     1.00675917     0.00000000     0.00000000
    -0.50337958     0.87187902     0.00000000
     0.00000000     0.00000000     1.08564481
New lattice vectors in NEW alat (for information only):
     1.00000000     0.00000000     0.00000000
    -0.50000000     0.86602540     0.00000000
     0.00000000     0.00000000     1.07835602
Discrepancy in bohr =     0.004416    0.004568    0.005142
     new conv_thr            =       0.0000000055 Ry

     new unit-cell volume =    761.30567 a.u.^3 (   112.81386 Ang^3 )
     density =      2.65319 g/cm^3

CELL_PARAMETERS (alat=  9.27890000)
   1.006759169   0.000000000   0.000000000
  -0.503379585   0.871879016   0.000000000
   0.000000000   0.000000000   1.085644807

ATOMIC_POSITIONS (crystal)
Si               0.2662155782        0.3626420166        0.0438132097
Si               0.6210120493        0.0930753800        0.2722638927
Si               0.1902315801        0.6286863939        0.5414966159
O                0.3225990398        0.5937892921        0.8095952825
O                0.4077312876        0.6596391842        0.2708670682
O                0.2904772332        0.9921498341        0.4953108778
O                0.5388980249        0.2752638460        0.0513306037
O                0.8552978550        0.3224748727        0.5006328926
O               -0.0790686480        0.0723311804        1.1144715569



     Writing config-only to output data dir ./tmp_quartz_ibrav4/quartz_ibrav4.save/ :
     XML data file
     NEW-OLD atomic charge density approx. for the potential
     New effective cutoffs (rho, wfc):  495.57   62.19

     negative rho (up, down):  3.268E-07 0.000E+00

     total cpu time spent up to now is    13834.5 secs

     Self-consistent Calculation

     iteration #  1     ecut=    60.00 Ry     beta= 0.30
     Davidson diagonalization with overlap
     ethr =  1.00E-06,  avg # of iterations =  9.0

     total cpu time spent up to now is    13882.7 secs

     total energy              =    -216.88314757 Ry
     estimated scf accuracy    <       0.00611068 Ry

     iteration #  2     ecut=    60.00 Ry     beta= 0.30
     Davidson diagonalization with overlap
     ethr =  1.27E-05,  avg # of iterations =  1.2

     total cpu time spent up to now is    13896.9 secs

     total energy              =    -216.88272564 Ry
     estimated scf accuracy    <       0.00161940 Ry

     iteration #  3     ecut=    60.00 Ry     beta= 0.30
     Davidson diagonalization with overlap
     ethr =  3.37E-06,  avg # of iterations =  2.0

     total cpu time spent up to now is    13915.9 secs

     total energy              =    -216.88305422 Ry
     estimated scf accuracy    <       0.00018272 Ry

     iteration #  4     ecut=    60.00 Ry     beta= 0.30
     Davidson diagonalization with overlap
     ethr =  3.81E-07,  avg # of iterations =  2.0

     total cpu time spent up to now is    13933.5 secs

     total energy              =    -216.88306746 Ry
     estimated scf accuracy    <       0.00004469 Ry

     iteration #  5     ecut=    60.00 Ry     beta= 0.30
     Davidson diagonalization with overlap
     ethr =  9.31E-08,  avg # of iterations =  2.0

     total cpu time spent up to now is    13952.5 secs

     total energy              =    -216.88307444 Ry
     estimated scf accuracy    <       0.00000695 Ry

     iteration #  6     ecut=    60.00 Ry     beta= 0.30
     Davidson diagonalization with overlap
     ethr =  1.45E-08,  avg # of iterations =  3.1

     total cpu time spent up to now is    13973.7 secs

     total energy              =    -216.88307603 Ry
     estimated scf accuracy    <       0.00000289 Ry

     iteration #  7     ecut=    60.00 Ry     beta= 0.30
     Davidson diagonalization with overlap
     ethr =  6.01E-09,  avg # of iterations =  2.8

     total cpu time spent up to now is    13992.9 secs

     total energy              =    -216.88307701 Ry
     estimated scf accuracy    <       0.00000037 Ry

     iteration #  8     ecut=    60.00 Ry     beta= 0.30
     Davidson diagonalization with overlap
     ethr =  7.67E-10,  avg # of iterations =  2.8

     total cpu time spent up to now is    14012.3 secs

     total energy              =    -216.88307715 Ry
     estimated scf accuracy    <       0.00000020 Ry

     iteration #  9     ecut=    60.00 Ry     beta= 0.30
     Davidson diagonalization with overlap
     ethr =  4.12E-10,  avg # of iterations =  3.4

     total cpu time spent up to now is    14033.7 secs

     total energy              =    -216.88307728 Ry
     estimated scf accuracy    <       0.00000003 Ry

     iteration # 10     ecut=    60.00 Ry     beta= 0.30
     Davidson diagonalization with overlap
     ethr =  6.29E-11,  avg # of iterations =  2.6

     total cpu time spent up to now is    14053.4 secs

     total energy              =    -216.88307737 Ry
     estimated scf accuracy    <          6.5E-09 Ry

     iteration # 11     ecut=    60.00 Ry     beta= 0.30
     Davidson diagonalization with overlap
     ethr =  1.35E-11,  avg # of iterations =  2.0

     total cpu time spent up to now is    14069.8 secs

     End of self-consistent calculation

     Number of k-points >= 100: set verbosity='high' to print the bands.

     highest occupied level (ev):     2.9848

!    total energy              =    -216.88307742 Ry
     estimated scf accuracy    <          1.1E-09 Ry

     The total energy is the sum of the following terms:
     one-electron contribution =    -110.24108842 Ry
     hartree contribution      =      80.04816663 Ry
     xc contribution           =     -49.48361506 Ry
     ewald contribution        =    -137.20654057 Ry

     convergence has been achieved in  11 iterations

     Forces acting on atoms (cartesian axes, Ry/au):

     atom    1 type  1   force =    -0.00098291    0.01031535    0.01946526
     atom    2 type  1   force =    -0.00013233   -0.01117879    0.01466952
     atom    3 type  1   force =    -0.01206641    0.01219322   -0.01268156
     atom    4 type  2   force =     0.00069439   -0.01681823   -0.01438787
     atom    5 type  2   force =    -0.00841091   -0.02261907    0.02605383
     atom    6 type  2   force =     0.01915618   -0.00537636   -0.02111827
     atom    7 type  2   force =     0.01431509   -0.03062713    0.00346266
     atom    8 type  2   force =    -0.00632196    0.01882248   -0.00379883
     atom    9 type  2   force =    -0.00625114    0.04528853   -0.01166475

     Total force =     0.087548     Total SCF correction =     0.000039


     Computing stress (Cartesian axis) and pressure

          total   stress  (Ry/bohr**3)                   (kbar)     P=      -23.44
  -0.00000848  -0.00020315   0.00016801           -1.25      -29.88       24.72
  -0.00020315  -0.00039015   0.00012007          -29.88      -57.39       17.66
   0.00016801   0.00012007  -0.00007941           24.72       17.66      -11.68

     Energy error            =      1.2E-02 Ry
     Gradient error          =      4.5E-02 Ry/Bohr
     Cell gradient error     =      5.7E+01 kbar

     number of scf cycles    =  39
     number of bfgs steps    =  35

     enthalpy           old  =    -216.8714498921 Ry
     enthalpy           new  =    -216.8830774210 Ry

     CASE: enthalpy          _new < enthalpy          _old

     new trust radius        =       0.0511365483 bohr
ibrav =      4
 celldm(1) =      9.33868248
 celldm(3) =      1.08254781
Input lattice vectors:
     1.00643528    -0.00331882     0.00205291
    -0.50609182     0.86765248     0.00177952
     0.00218491     0.00343678     1.08951489
New lattice vectors in INITIAL alat:
     1.00644284     0.00000000     0.00000000
    -0.50322142     0.87160507     0.00000000
     0.00000000     0.00000000     1.08952250
New lattice vectors in NEW alat (for information only):
     1.00000000     0.00000000     0.00000000
    -0.50000000     0.86602540     0.00000000
     0.00000000     0.00000000     1.08254781
Discrepancy in bohr =     0.003902    0.005199    0.004073
     new conv_thr            =       0.0000000045 Ry

     new unit-cell volume =    763.54484 a.u.^3 (   113.14567 Ang^3 )
     density =      2.64541 g/cm^3

CELL_PARAMETERS (alat=  9.27890000)
   1.006442841   0.000000000   0.000000000
  -0.503221420   0.871605068   0.000000000
   0.000000000   0.000000000   1.089522497

ATOMIC_POSITIONS (crystal)
Si               0.2663012338        0.3625629806        0.0456613640
Si               0.6229682822        0.0931909549        0.2735798411
Si               0.1901046028        0.6299029277        0.5417166983
O                0.3176195216        0.5933441125        0.8101113349
O                0.4065944572        0.6561365840        0.2748059312
O                0.2950777222        0.9943228416        0.4918317257
O                0.5378661784        0.2702240801        0.0518915880
O                0.8564405493        0.3259527407        0.4965537117
O               -0.0795785475        0.0744147779        1.1136298051



     Writing config-only to output data dir ./tmp_quartz_ibrav4/quartz_ibrav4.save/ :
     XML data file
     NEW-OLD atomic charge density approx. for the potential
     New effective cutoffs (rho, wfc):  492.40   61.76

     total cpu time spent up to now is    14077.6 secs

     Self-consistent Calculation

     iteration #  1     ecut=    60.00 Ry     beta= 0.30
     Davidson diagonalization with overlap
     ethr =  1.00E-06,  avg # of iterations =  7.4

     total cpu time spent up to now is    14121.0 secs

     total energy              =    -216.88826683 Ry
     estimated scf accuracy    <       0.00208568 Ry

     iteration #  2     ecut=    60.00 Ry     beta= 0.30
     Davidson diagonalization with overlap
     ethr =  4.35E-06,  avg # of iterations =  1.0

     total cpu time spent up to now is    14134.5 secs

     total energy              =    -216.88800311 Ry
     estimated scf accuracy    <       0.00063365 Ry

     iteration #  3     ecut=    60.00 Ry     beta= 0.30
     Davidson diagonalization with overlap
     ethr =  1.32E-06,  avg # of iterations =  2.0

     total cpu time spent up to now is    14152.8 secs

     total energy              =    -216.88814550 Ry
     estimated scf accuracy    <       0.00004425 Ry

     iteration #  4     ecut=    60.00 Ry     beta= 0.30
     Davidson diagonalization with overlap
     ethr =  9.22E-08,  avg # of iterations =  2.0

     total cpu time spent up to now is    14170.6 secs

     total energy              =    -216.88815032 Ry
     estimated scf accuracy    <       0.00001171 Ry

     iteration #  5     ecut=    60.00 Ry     beta= 0.30
     Davidson diagonalization with overlap
     ethr =  2.44E-08,  avg # of iterations =  2.0

     total cpu time spent up to now is    14188.9 secs

     total energy              =    -216.88815231 Ry
     estimated scf accuracy    <       0.00000211 Ry

     iteration #  6     ecut=    60.00 Ry     beta= 0.30
     Davidson diagonalization with overlap
     ethr =  4.39E-09,  avg # of iterations =  2.9

     total cpu time spent up to now is    14208.5 secs

     total energy              =    -216.88815273 Ry
     estimated scf accuracy    <       0.00000113 Ry

     iteration #  7     ecut=    60.00 Ry     beta= 0.30
     Davidson diagonalization with overlap
     ethr =  2.36E-09,  avg # of iterations =  2.0

     total cpu time spent up to now is    14226.9 secs

     total energy              =    -216.88815309 Ry
     estimated scf accuracy    <       0.00000009 Ry

     iteration #  8     ecut=    60.00 Ry     beta= 0.30
     Davidson diagonalization with overlap
     ethr =  1.97E-10,  avg # of iterations =  4.5

     total cpu time spent up to now is    14250.1 secs

     total energy              =    -216.88815313 Ry
     estimated scf accuracy    <       0.00000015 Ry

     iteration #  9     ecut=    60.00 Ry     beta= 0.30
     Davidson diagonalization with overlap
     ethr =  1.97E-10,  avg # of iterations =  3.4

     total cpu time spent up to now is    14272.1 secs

     total energy              =    -216.88815318 Ry
     estimated scf accuracy    <          9.1E-09 Ry

     iteration # 10     ecut=    60.00 Ry     beta= 0.30
     Davidson diagonalization with overlap
     ethr =  1.90E-11,  avg # of iterations =  2.4

     total cpu time spent up to now is    14290.7 secs

     End of self-consistent calculation

     Number of k-points >= 100: set verbosity='high' to print the bands.

     highest occupied level (ev):     2.9414

!    total energy              =    -216.88815315 Ry
     estimated scf accuracy    <          5.3E-10 Ry

     The total energy is the sum of the following terms:
     one-electron contribution =    -111.71558778 Ry
     hartree contribution      =      80.73268897 Ry
     xc contribution           =     -49.50192513 Ry
     ewald contribution        =    -136.40332921 Ry

     convergence has been achieved in  10 iterations

     Forces acting on atoms (cartesian axes, Ry/au):

     atom    1 type  1   force =     0.00961941    0.01620213    0.01242070
     atom    2 type  1   force =    -0.00735009   -0.01644037    0.00634307
     atom    3 type  1   force =    -0.00867926    0.01393213   -0.01282492
     atom    4 type  2   force =     0.00726930   -0.02219962    0.00083782
     atom    5 type  2   force =     0.00126291   -0.01948355    0.01301386
     atom    6 type  2   force =     0.01268142   -0.00816164   -0.01305227
     atom    7 type  2   force =    -0.00543440   -0.01977784   -0.00418246
     atom    8 type  2   force =    -0.00580793    0.02045121    0.00641958
     atom    9 type  2   force =    -0.00356135    0.03547755   -0.00897538

     Total force =     0.071315     Total SCF correction =     0.000033


     Computing stress (Cartesian axis) and pressure

          total   stress  (Ry/bohr**3)                   (kbar)     P=      -20.78
   0.00001149  -0.00014158   0.00013165            1.69      -20.83       19.37
  -0.00014158  -0.00035696   0.00015028          -20.83      -52.51       22.11
   0.00013165   0.00015028  -0.00007822           19.37       22.11      -11.51

     Energy error            =      5.1E-03 Ry
     Gradient error          =      3.5E-02 Ry/Bohr
     Cell gradient error     =      5.3E+01 kbar

     number of scf cycles    =  40
     number of bfgs steps    =  36

     enthalpy           old  =    -216.8830774210 Ry
     enthalpy           new  =    -216.8881531538 Ry

     CASE: enthalpy          _new < enthalpy          _old

     new trust radius        =       0.0563353129 bohr
ibrav =      4
 celldm(1) =      9.34956086
 celldm(3) =      1.08300012
Input lattice vectors:
     1.00761197    -0.00219313     0.00132227
    -0.50570529     0.87000856     0.00080129
     0.00143645     0.00195745     1.09124471
New lattice vectors in INITIAL alat:
     1.00761522     0.00000000     0.00000000
    -0.50380761     0.87262038     0.00000000
     0.00000000     0.00000000     1.09124741
New lattice vectors in NEW alat (for information only):
     1.00000000     0.00000000     0.00000000
    -0.50000000     0.86602540     0.00000000
     0.00000000     0.00000000     1.08300012
Discrepancy in bohr =     0.002561    0.003326    0.002428
     new conv_thr            =       0.0000000035 Ry

     new unit-cell volume =    766.53639 a.u.^3 (   113.58897 Ang^3 )
     density =      2.63509 g/cm^3

CELL_PARAMETERS (alat=  9.27890000)
   1.007615219   0.000000000   0.000000000
  -0.503807610   0.872620377   0.000000000
   0.000000000   0.000000000   1.091247407

ATOMIC_POSITIONS (crystal)
Si               0.2698945750        0.3652480758        0.0472323375
Si               0.6243150836        0.0924850430        0.2740272680
Si               0.1891700917        0.6300657103        0.5424208896
O                0.3116599483        0.5912924578        0.8120890821
O                0.4063169966        0.6522429706        0.2789655380
O                0.2997175808        0.9953775850        0.4885878898
O                0.5352840440        0.2662313611        0.0525807274
O                0.8563501617        0.3306250970        0.4930814466
O               -0.0793144817        0.0764836994        1.1107968210



     Writing config-only to output data dir ./tmp_quartz_ibrav4/quartz_ibrav4.save/ :
     XML data file
     NEW-OLD atomic charge density approx. for the potential
     New effective cutoffs (rho, wfc):  490.89   61.57

     total cpu time spent up to now is    14298.2 secs

     Self-consistent Calculation

     iteration #  1     ecut=    60.00 Ry     beta= 0.30
     Davidson diagonalization with overlap
     ethr =  1.00E-06,  avg # of iterations =  8.1

     total cpu time spent up to now is    14343.4 secs

     total energy              =    -216.89173665 Ry
     estimated scf accuracy    <       0.00191853 Ry

     iteration #  2     ecut=    60.00 Ry     beta= 0.30
     Davidson diagonalization with overlap
     ethr =  4.00E-06,  avg # of iterations =  1.0

     total cpu time spent up to now is    14357.8 secs

     total energy              =    -216.89142424 Ry
     estimated scf accuracy    <       0.00065730 Ry

     iteration #  3     ecut=    60.00 Ry     beta= 0.30
     Davidson diagonalization with overlap
     ethr =  1.37E-06,  avg # of iterations =  2.0

     total cpu time spent up to now is    14376.4 secs

     total energy              =    -216.89157515 Ry
     estimated scf accuracy    <       0.00003253 Ry

     iteration #  4     ecut=    60.00 Ry     beta= 0.30
     Davidson diagonalization with overlap
     ethr =  6.78E-08,  avg # of iterations =  2.0

     total cpu time spent up to now is    14394.2 secs

     total energy              =    -216.89157878 Ry
     estimated scf accuracy    <       0.00001078 Ry

     iteration #  5     ecut=    60.00 Ry     beta= 0.30
     Davidson diagonalization with overlap
     ethr =  2.25E-08,  avg # of iterations =  2.0

     total cpu time spent up to now is    14412.5 secs

     total energy              =    -216.89158079 Ry
     estimated scf accuracy    <       0.00000174 Ry

     iteration #  6     ecut=    60.00 Ry     beta= 0.30
     Davidson diagonalization with overlap
     ethr =  3.63E-09,  avg # of iterations =  2.3

     total cpu time spent up to now is    14431.5 secs

     total energy              =    -216.89158122 Ry
     estimated scf accuracy    <       0.00000070 Ry

     iteration #  7     ecut=    60.00 Ry     beta= 0.30
     Davidson diagonalization with overlap
     ethr =  1.45E-09,  avg # of iterations =  2.0

     total cpu time spent up to now is    14449.6 secs

     total energy              =    -216.89158146 Ry
     estimated scf accuracy    <       0.00000007 Ry

     iteration #  8     ecut=    60.00 Ry     beta= 0.30
     Davidson diagonalization with overlap
     ethr =  1.38E-10,  avg # of iterations =  4.4

     total cpu time spent up to now is    14476.1 secs

     total energy              =    -216.89158156 Ry
     estimated scf accuracy    <       0.00000023 Ry

     iteration #  9     ecut=    60.00 Ry     beta= 0.30
     Davidson diagonalization with overlap
     ethr =  1.38E-10,  avg # of iterations =  3.3

     total cpu time spent up to now is    14498.8 secs

     End of self-consistent calculation

     Number of k-points >= 100: set verbosity='high' to print the bands.

     highest occupied level (ev):     2.8851

!    total energy              =    -216.89158162 Ry
     estimated scf accuracy    <          2.5E-09 Ry

     The total energy is the sum of the following terms:
     one-electron contribution =    -113.13103281 Ry
     hartree contribution      =      81.36817261 Ry
     xc contribution           =     -49.51727693 Ry
     ewald contribution        =    -135.61144449 Ry

     convergence has been achieved in   9 iterations

     Forces acting on atoms (cartesian axes, Ry/au):

     atom    1 type  1   force =    -0.00186562    0.00195084    0.01698845
     atom    2 type  1   force =    -0.00769522   -0.01570515   -0.00202913
     atom    3 type  1   force =    -0.00352900    0.01954167   -0.01242086
     atom    4 type  2   force =     0.00929882   -0.01598718   -0.00244285
     atom    5 type  2   force =     0.00934658   -0.01311561    0.00430357
     atom    6 type  2   force =     0.00674586   -0.01308241   -0.00457213
     atom    7 type  2   force =    -0.00411770   -0.01595378   -0.00904443
     atom    8 type  2   force =    -0.00541468    0.01842505    0.01121275
     atom    9 type  2   force =    -0.00276905    0.03392655   -0.00199537

     Total force =     0.063470     Total SCF correction =     0.000160


     Computing stress (Cartesian axis) and pressure

          total   stress  (Ry/bohr**3)                   (kbar)     P=      -18.51
   0.00002877  -0.00012570   0.00011757            4.23      -18.49       17.30
  -0.00012570  -0.00033394   0.00016428          -18.49      -49.12       24.17
   0.00011757   0.00016428  -0.00007226           17.30       24.17      -10.63

     Energy error            =      3.4E-03 Ry
     Gradient error          =      3.4E-02 Ry/Bohr
     Cell gradient error     =      4.9E+01 kbar

     number of scf cycles    =  41
     number of bfgs steps    =  37

     enthalpy           old  =    -216.8881531538 Ry
     enthalpy           new  =    -216.8915816208 Ry

     CASE: enthalpy          _new < enthalpy          _old

     new trust radius        =       0.0814980369 bohr
ibrav =      4
 celldm(1) =      9.37879536
 celldm(3) =      1.07582470
Input lattice vectors:
     1.01076038    -0.00310360     0.00120591
    -0.50806799     0.87235736     0.00347583
     0.00128908     0.00522127     1.08739358
New lattice vectors in INITIAL alat:
     1.01076586     0.00000000     0.00000000
    -0.50538293     0.87534891     0.00000000
     0.00000000     0.00000000     1.08740688
New lattice vectors in NEW alat (for information only):
     1.00000000     0.00000000     0.00000000
    -0.50000000     0.86602540     0.00000000
     0.00000000     0.00000000     1.07582470
Discrepancy in bohr =     0.003330    0.005314    0.005378
     new conv_thr            =       0.0000000034 Ry

     new unit-cell volume =    768.62291 a.u.^3 (   113.89816 Ang^3 )
     density =      2.62794 g/cm^3

CELL_PARAMETERS (alat=  9.27890000)
   1.010765862   0.000000000   0.000000000
  -0.505382931   0.875348914   0.000000000
   0.000000000   0.000000000   1.087406883

ATOMIC_POSITIONS (crystal)
Si               0.2722206110        0.3688058769        0.0530751883
Si               0.6267190132        0.0911093453        0.2735858129
Si               0.1888685746        0.6319052042        0.5435336389
O                0.3058050949        0.5907292859        0.8137662697
O                0.4069441420        0.6460391566        0.2842867644
O                0.3049775543        0.9956908004        0.4834534000
O                0.5303916651        0.2581135300        0.0498800981
O                0.8570463868        0.3380419264        0.4895690705
O               -0.0795790419        0.0796168744        1.1086317572



     Writing config-only to output data dir ./tmp_quartz_ibrav4/quartz_ibrav4.save/ :
     XML data file
     NEW-OLD atomic charge density approx. for the potential
     New effective cutoffs (rho, wfc):  493.75   61.99

     total cpu time spent up to now is    14506.6 secs

     Self-consistent Calculation

     iteration #  1     ecut=    60.00 Ry     beta= 0.30
     Davidson diagonalization with overlap
     ethr =  1.00E-06,  avg # of iterations =  9.2

     total cpu time spent up to now is    14554.7 secs

     total energy              =    -216.89470414 Ry
     estimated scf accuracy    <       0.00349524 Ry

     iteration #  2     ecut=    60.00 Ry     beta= 0.30
     Davidson diagonalization with overlap
     ethr =  7.28E-06,  avg # of iterations =  1.0

     total cpu time spent up to now is    14568.2 secs

     total energy              =    -216.89414790 Ry
     estimated scf accuracy    <       0.00122367 Ry

     iteration #  3     ecut=    60.00 Ry     beta= 0.30
     Davidson diagonalization with overlap
     ethr =  2.55E-06,  avg # of iterations =  2.0

     total cpu time spent up to now is    14586.7 secs

     total energy              =    -216.89438379 Ry
     estimated scf accuracy    <       0.00004430 Ry

     iteration #  4     ecut=    60.00 Ry     beta= 0.30
     Davidson diagonalization with overlap
     ethr =  9.23E-08,  avg # of iterations =  2.4

     total cpu time spent up to now is    14603.7 secs

     total energy              =    -216.89438844 Ry
     estimated scf accuracy    <       0.00001693 Ry

     iteration #  5     ecut=    60.00 Ry     beta= 0.30
     Davidson diagonalization with overlap
     ethr =  3.53E-08,  avg # of iterations =  2.0

     total cpu time spent up to now is    14621.8 secs

     total energy              =    -216.89439162 Ry
     estimated scf accuracy    <       0.00000143 Ry

     iteration #  6     ecut=    60.00 Ry     beta= 0.30
     Davidson diagonalization with overlap
     ethr =  2.97E-09,  avg # of iterations =  2.8

     total cpu time spent up to now is    14640.8 secs

     total energy              =    -216.89439256 Ry
     estimated scf accuracy    <       0.00000039 Ry

     iteration #  7     ecut=    60.00 Ry     beta= 0.30
     Davidson diagonalization with overlap
     ethr =  8.02E-10,  avg # of iterations =  2.0

     total cpu time spent up to now is    14658.0 secs

     total energy              =    -216.89439288 Ry
     estimated scf accuracy    <       0.00000005 Ry

     iteration #  8     ecut=    60.00 Ry     beta= 0.30
     Davidson diagonalization with overlap
     ethr =  1.13E-10,  avg # of iterations =  3.1

     total cpu time spent up to now is    14680.8 secs

     total energy              =    -216.89439304 Ry
     estimated scf accuracy    <       0.00000005 Ry

     iteration #  9     ecut=    60.00 Ry     beta= 0.30
     Davidson diagonalization with overlap
     ethr =  9.73E-11,  avg # of iterations =  2.0

     total cpu time spent up to now is    14699.7 secs

     End of self-consistent calculation

     Number of k-points >= 100: set verbosity='high' to print the bands.

     highest occupied level (ev):     2.8103

!    total energy              =    -216.89439322 Ry
     estimated scf accuracy    <          2.2E-09 Ry

     The total energy is the sum of the following terms:
     one-electron contribution =    -114.46928282 Ry
     hartree contribution      =      81.97955037 Ry
     xc contribution           =     -49.53608189 Ry
     ewald contribution        =    -134.86857889 Ry

     convergence has been achieved in   9 iterations

     Forces acting on atoms (cartesian axes, Ry/au):

     atom    1 type  1   force =     0.00784494   -0.01520690   -0.00618022
     atom    2 type  1   force =    -0.01681822   -0.00293981   -0.00776201
     atom    3 type  1   force =    -0.00307660    0.01764671   -0.01251600
     atom    4 type  2   force =     0.01776684   -0.01860019    0.01577631
     atom    5 type  2   force =     0.01822249   -0.00109673    0.00136561
     atom    6 type  2   force =     0.00074171   -0.01319807    0.00323617
     atom    7 type  2   force =    -0.01681311   -0.00727229   -0.00894611
     atom    8 type  2   force =    -0.00880681    0.01281443    0.01094442
     atom    9 type  2   force =     0.00093875    0.02785284    0.00408184

     Total force =     0.064510     Total SCF correction =     0.000127


     Computing stress (Cartesian axis) and pressure

          total   stress  (Ry/bohr**3)                   (kbar)     P=      -15.17
   0.00000557  -0.00008763   0.00006305            0.82      -12.89        9.27
  -0.00008763  -0.00029492   0.00021296          -12.89      -43.38       31.33
   0.00006305   0.00021296  -0.00002008            9.27       31.33       -2.95

     Energy error            =      2.8E-03 Ry
     Gradient error          =      2.8E-02 Ry/Bohr
     Cell gradient error     =      4.3E+01 kbar

     number of scf cycles    =  42
     number of bfgs steps    =  38

     enthalpy           old  =    -216.8915816208 Ry
     enthalpy           new  =    -216.8943932188 Ry

     CASE: enthalpy          _new < enthalpy          _old

     new trust radius        =       0.0457692800 bohr
ibrav =      4
 celldm(1) =      9.39671466
 celldm(3) =      1.07014524
Input lattice vectors:
     1.01269103    -0.00310769     0.00158940
    -0.50903685     0.87262839     0.00246987
     0.00168394     0.00430829     1.08372305
New lattice vectors in INITIAL alat:
     1.01269705     0.00000000     0.00000000
    -0.50634853     0.87702137     0.00000000
     0.00000000     0.00000000     1.08373292
New lattice vectors in NEW alat (for information only):
     1.00000000     0.00000000     0.00000000
    -0.50000000     0.86602540     0.00000000
     0.00000000     0.00000000     1.07014524
Discrepancy in bohr =     0.003491    0.005712    0.004626
     new conv_thr            =       0.0000000028 Ry

     new unit-cell volume =    768.95597 a.u.^3 (   113.94752 Ang^3 )
     density =      2.62680 g/cm^3

CELL_PARAMETERS (alat=  9.27890000)
   1.012697050   0.000000000   0.000000000
  -0.506348525   0.877021372   0.000000000
   0.000000000   0.000000000   1.083732923

ATOMIC_POSITIONS (crystal)
Si               0.2741353386        0.3693515279        0.0533151957
Si               0.6257964712        0.0910519904        0.2740263958
Si               0.1884980834        0.6320344000        0.5431111735
O                0.3045390630        0.5903130003        0.8148558425
O                0.4094305259        0.6439817080        0.2869621635
O                0.3053903827        0.9953683313        0.4824035888
O                0.5279108015        0.2556752413        0.0484684520
O                0.8559671229        0.3411865019        0.4891264738
O               -0.0782737892        0.0810892990        1.1075127143



     Writing config-only to output data dir ./tmp_quartz_ibrav4/quartz_ibrav4.save/ :
     XML data file
     NEW-OLD atomic charge density approx. for the potential
     New effective cutoffs (rho, wfc):  496.73   62.39

     total cpu time spent up to now is    14707.2 secs

     Self-consistent Calculation

     iteration #  1     ecut=    60.00 Ry     beta= 0.30
     Davidson diagonalization with overlap
     ethr =  1.00E-06,  avg # of iterations =  6.2

     total cpu time spent up to now is    14745.4 secs

     total energy              =    -216.89590578 Ry
     estimated scf accuracy    <       0.00060274 Ry

     iteration #  2     ecut=    60.00 Ry     beta= 0.30
     Davidson diagonalization with overlap
     ethr =  1.26E-06,  avg # of iterations =  1.0

     total cpu time spent up to now is    14758.9 secs

     total energy              =    -216.89579224 Ry
     estimated scf accuracy    <       0.00022714 Ry

     iteration #  3     ecut=    60.00 Ry     beta= 0.30
     Davidson diagonalization with overlap
     ethr =  4.73E-07,  avg # of iterations =  2.0

     total cpu time spent up to now is    14777.5 secs

     total energy              =    -216.89584759 Ry
     estimated scf accuracy    <       0.00001845 Ry

     iteration #  4     ecut=    60.00 Ry     beta= 0.30
     Davidson diagonalization with overlap
     ethr =  3.84E-08,  avg # of iterations =  2.2

     total cpu time spent up to now is    14794.9 secs

     total energy              =    -216.89584755 Ry
     estimated scf accuracy    <       0.00000627 Ry

     iteration #  5     ecut=    60.00 Ry     beta= 0.30
     Davidson diagonalization with overlap
     ethr =  1.31E-08,  avg # of iterations =  2.3

     total cpu time spent up to now is    14813.3 secs

     total energy              =    -216.89584898 Ry
     estimated scf accuracy    <       0.00000266 Ry

     iteration #  6     ecut=    60.00 Ry     beta= 0.30
     Davidson diagonalization with overlap
     ethr =  5.54E-09,  avg # of iterations =  2.0

     total cpu time spent up to now is    14831.5 secs

     total energy              =    -216.89584971 Ry
     estimated scf accuracy    <       0.00000044 Ry

     iteration #  7     ecut=    60.00 Ry     beta= 0.30
     Davidson diagonalization with overlap
     ethr =  9.10E-10,  avg # of iterations =  2.3

     total cpu time spent up to now is    14850.7 secs

     total energy              =    -216.89584977 Ry
     estimated scf accuracy    <       0.00000017 Ry

     iteration #  8     ecut=    60.00 Ry     beta= 0.30
     Davidson diagonalization with overlap
     ethr =  3.48E-10,  avg # of iterations =  2.8

     total cpu time spent up to now is    14869.8 secs

     total energy              =    -216.89584983 Ry
     estimated scf accuracy    <       0.00000008 Ry

     iteration #  9     ecut=    60.00 Ry     beta= 0.30
     Davidson diagonalization with overlap
     ethr =  1.57E-10,  avg # of iterations =  2.0

     total cpu time spent up to now is    14888.2 secs

     total energy              =    -216.89584986 Ry
     estimated scf accuracy    <          4.3E-09 Ry

     iteration # 10     ecut=    60.00 Ry     beta= 0.30
     Davidson diagonalization with overlap
     ethr =  8.98E-12,  avg # of iterations =  3.2

     total cpu time spent up to now is    14910.3 secs

     End of self-consistent calculation

     Number of k-points >= 100: set verbosity='high' to print the bands.

     highest occupied level (ev):     2.7626

!    total energy              =    -216.89584988 Ry
     estimated scf accuracy    <          2.2E-09 Ry

     The total energy is the sum of the following terms:
     one-electron contribution =    -114.34818945 Ry
     hartree contribution      =      81.90810325 Ry
     xc contribution           =     -49.53378502 Ry
     ewald contribution        =    -134.92197865 Ry

     convergence has been achieved in  10 iterations

     Forces acting on atoms (cartesian axes, Ry/au):

     atom    1 type  1   force =    -0.00179342   -0.01926051   -0.00302661
     atom    2 type  1   force =    -0.00798718    0.00040448   -0.01366574
     atom    3 type  1   force =    -0.00012082    0.01673165   -0.00787047
     atom    4 type  2   force =     0.01622716   -0.01428683    0.00982131
     atom    5 type  2   force =     0.01655157    0.00243123   -0.00021036
     atom    6 type  2   force =     0.00058168   -0.01488513    0.00407341
     atom    7 type  2   force =    -0.00792125   -0.00893835   -0.00824514
     atom    8 type  2   force =    -0.00926251    0.01094702    0.00903131
     atom    9 type  2   force =    -0.00627524    0.02685644    0.01009228

     Total force =     0.058469     Total SCF correction =     0.000198


     Computing stress (Cartesian axis) and pressure

          total   stress  (Ry/bohr**3)                   (kbar)     P=      -16.08
  -0.00001001  -0.00009166   0.00007188           -1.47      -13.48       10.57
  -0.00009166  -0.00029622   0.00019650          -13.48      -43.58       28.91
   0.00007188   0.00019650  -0.00002177           10.57       28.91       -3.20

     Energy error            =      1.5E-03 Ry
     Gradient error          =      2.7E-02 Ry/Bohr
     Cell gradient error     =      4.4E+01 kbar

     number of scf cycles    =  43
     number of bfgs steps    =  39

     enthalpy           old  =    -216.8943932188 Ry
     enthalpy           new  =    -216.8958498752 Ry

     CASE: enthalpy          _new < enthalpy          _old

     new trust radius        =       0.0503499267 bohr
ibrav =      4
 celldm(1) =      9.41055744
 celldm(3) =      1.06469381
Input lattice vectors:
     1.01418855    -0.00080096     0.00028758
    -0.50778793     0.87693024     0.00099208
     0.00029448     0.00151734     1.07979954
New lattice vectors in INITIAL alat:
     1.01418891     0.00000000     0.00000000
    -0.50709445     0.87831336     0.00000000
     0.00000000     0.00000000     1.07980065
New lattice vectors in NEW alat (for information only):
     1.00000000     0.00000000     0.00000000
    -0.50000000     0.86602540     0.00000000
     0.00000000     0.00000000     1.06469381
Discrepancy in bohr =     0.000851    0.001838    0.001546
     new conv_thr            =       0.0000000015 Ry

     new unit-cell volume =    768.42487 a.u.^3 (   113.86882 Ang^3 )
     density =      2.62861 g/cm^3

CELL_PARAMETERS (alat=  9.27890000)
   1.014188906   0.000000000   0.000000000
  -0.507094453   0.878313357   0.000000000
   0.000000000   0.000000000   1.079800649

ATOMIC_POSITIONS (crystal)
Si               0.2744926477        0.3689113532        0.0541290833
Si               0.6261640436        0.0914595366        0.2734252853
Si               0.1890854695        0.6330246816        0.5427934694
O                0.3033925469        0.5904030019        0.8166496718
O                0.4124119007        0.6416262783        0.2894785589
O                0.3062530243        0.9954887552        0.4812712171
O                0.5245761777        0.2524387315        0.0461024150
O                0.8557034033        0.3449289410        0.4882806910
O               -0.0786852137        0.0817707206        1.1076516081



     Writing config-only to output data dir ./tmp_quartz_ibrav4/quartz_ibrav4.save/ :
     XML data file
     NEW-OLD atomic charge density approx. for the potential
     New effective cutoffs (rho, wfc):  500.17   62.83

     total cpu time spent up to now is    14917.7 secs

     Self-consistent Calculation

     iteration #  1     ecut=    60.00 Ry     beta= 0.30
     Davidson diagonalization with overlap
     ethr =  1.00E-06,  avg # of iterations =  6.0

     total cpu time spent up to now is    14955.5 secs

     total energy              =    -216.89742732 Ry
     estimated scf accuracy    <       0.00064004 Ry

     iteration #  2     ecut=    60.00 Ry     beta= 0.30
     Davidson diagonalization with overlap
     ethr =  1.33E-06,  avg # of iterations =  1.0

     total cpu time spent up to now is    14969.1 secs

     total energy              =    -216.89729867 Ry
     estimated scf accuracy    <       0.00025467 Ry

     iteration #  3     ecut=    60.00 Ry     beta= 0.30
     Davidson diagonalization with overlap
     ethr =  5.31E-07,  avg # of iterations =  2.0

     total cpu time spent up to now is    14988.1 secs

     total energy              =    -216.89735519 Ry
     estimated scf accuracy    <       0.00001393 Ry

     iteration #  4     ecut=    60.00 Ry     beta= 0.30
     Davidson diagonalization with overlap
     ethr =  2.90E-08,  avg # of iterations =  3.1

     total cpu time spent up to now is    15005.6 secs

     total energy              =    -216.89735667 Ry
     estimated scf accuracy    <       0.00000481 Ry

     iteration #  5     ecut=    60.00 Ry     beta= 0.30
     Davidson diagonalization with overlap
     ethr =  1.00E-08,  avg # of iterations =  2.2

     total cpu time spent up to now is    15024.3 secs

     total energy              =    -216.89735755 Ry
     estimated scf accuracy    <       0.00000188 Ry

     iteration #  6     ecut=    60.00 Ry     beta= 0.30
     Davidson diagonalization with overlap
     ethr =  3.92E-09,  avg # of iterations =  2.1

     total cpu time spent up to now is    15042.7 secs

     total energy              =    -216.89735786 Ry
     estimated scf accuracy    <       0.00000051 Ry

     iteration #  7     ecut=    60.00 Ry     beta= 0.30
     Davidson diagonalization with overlap
     ethr =  1.05E-09,  avg # of iterations =  2.0

     total cpu time spent up to now is    15061.4 secs

     total energy              =    -216.89735795 Ry
     estimated scf accuracy    <       0.00000006 Ry

     iteration #  8     ecut=    60.00 Ry     beta= 0.30
     Davidson diagonalization with overlap
     ethr =  1.26E-10,  avg # of iterations =  3.9

     total cpu time spent up to now is    15085.0 secs

     total energy              =    -216.89735803 Ry
     estimated scf accuracy    <       0.00000008 Ry

     iteration #  9     ecut=    60.00 Ry     beta= 0.30
     Davidson diagonalization with overlap
     ethr =  1.26E-10,  avg # of iterations =  2.0

     total cpu time spent up to now is    15103.1 secs

     total energy              =    -216.89735806 Ry
     estimated scf accuracy    <          3.1E-09 Ry

     iteration # 10     ecut=    60.00 Ry     beta= 0.30
     Davidson diagonalization with overlap
     ethr =  6.53E-12,  avg # of iterations =  5.4

     total cpu time spent up to now is    15131.4 secs

     total energy              =    -216.89735807 Ry
     estimated scf accuracy    <          2.4E-09 Ry

     iteration # 11     ecut=    60.00 Ry     beta= 0.30
     Davidson diagonalization with overlap
     ethr =  5.01E-12,  avg # of iterations =  2.2

     total cpu time spent up to now is    15147.2 secs

     End of self-consistent calculation

     Number of k-points >= 100: set verbosity='high' to print the bands.

     highest occupied level (ev):     2.7310

!    total energy              =    -216.89735811 Ry
     estimated scf accuracy    <          6.0E-10 Ry

     The total energy is the sum of the following terms:
     one-electron contribution =    -114.14812843 Ry
     hartree contribution      =      81.81910292 Ry
     xc contribution           =     -49.53463454 Ry
     ewald contribution        =    -135.03369806 Ry

     convergence has been achieved in  11 iterations

     Forces acting on atoms (cartesian axes, Ry/au):

     atom    1 type  1   force =    -0.00613277   -0.02009330   -0.00191622
     atom    2 type  1   force =    -0.00829289    0.00369541   -0.01317252
     atom    3 type  1   force =     0.00274487    0.01325221   -0.00317071
     atom    4 type  2   force =     0.01348276   -0.01160000    0.00383229
     atom    5 type  2   force =     0.01290751    0.00529733    0.00057003
     atom    6 type  2   force =     0.00169982   -0.01521495    0.00346045
     atom    7 type  2   force =    -0.00093495   -0.01083628   -0.00650011
     atom    8 type  2   force =    -0.01026611    0.00912719    0.00690312
     atom    9 type  2   force =    -0.00520823    0.02637237    0.00999368

     Total force =     0.053721     Total SCF correction =     0.000089


     Computing stress (Cartesian axis) and pressure

          total   stress  (Ry/bohr**3)                   (kbar)     P=      -15.93
  -0.00000914  -0.00009214   0.00005828           -1.34      -13.55        8.57
  -0.00009214  -0.00029399   0.00018089          -13.55      -43.25       26.61
   0.00005828   0.00018089  -0.00002177            8.57       26.61       -3.20

     Energy error            =      1.5E-03 Ry
     Gradient error          =      2.6E-02 Ry/Bohr
     Cell gradient error     =      4.3E+01 kbar

     number of scf cycles    =  44
     number of bfgs steps    =  40

     enthalpy           old  =    -216.8958498752 Ry
     enthalpy           new  =    -216.8973581105 Ry

     CASE: enthalpy          _new < enthalpy          _old

     new trust radius        =       0.0755390168 bohr
ibrav =      4
 celldm(1) =      9.43329290
 celldm(3) =      1.05521742
Input lattice vectors:
     1.01663892    -0.00063318     0.00020905
    -0.50886781     0.87893539     0.00095792
     0.00023097     0.00140470     1.07277439
New lattice vectors in INITIAL alat:
     1.01663914     0.00000000     0.00000000
    -0.50831957     0.88043532     0.00000000
     0.00000000     0.00000000     1.07277533
New lattice vectors in NEW alat (for information only):
     1.00000000     0.00000000     0.00000000
    -0.50000000     0.86602540     0.00000000
     0.00000000     0.00000000     1.05521742
Discrepancy in bohr =     0.000667    0.001862    0.001424
     new conv_thr            =       0.0000000015 Ry

     new unit-cell volume =    767.11865 a.u.^3 (   113.67526 Ang^3 )
     density =      2.63309 g/cm^3

CELL_PARAMETERS (alat=  9.27890000)
   1.016639138   0.000000000   0.000000000
  -0.508319569   0.880435320   0.000000000
   0.000000000   0.000000000   1.072775331

ATOMIC_POSITIONS (crystal)
Si               0.2744893945        0.3676247788        0.0553260004
Si               0.6256072616        0.0925268570        0.2730774626
Si               0.1898268326        0.6340011688        0.5423072598
O                0.3030382438        0.5914295888        0.8185891836
O                0.4176009712        0.6389022513        0.2932298199
O                0.3063652391        0.9947440774        0.4796990007
O                0.5203004996        0.2470681763        0.0416859704
O                0.8545499315        0.3504471880        0.4873449831
O               -0.0783843739        0.0833079136        1.1085223195



     Writing config-only to output data dir ./tmp_quartz_ibrav4/quartz_ibrav4.save/ :
     XML data file
     NEW-OLD atomic charge density approx. for the potential
     New effective cutoffs (rho, wfc):  506.41   63.63

     total cpu time spent up to now is    15154.9 secs

     Self-consistent Calculation

     iteration #  1     ecut=    60.00 Ry     beta= 0.30
     Davidson diagonalization with overlap
     ethr =  1.00E-06,  avg # of iterations =  7.6

     total cpu time spent up to now is    15197.9 secs

     total energy              =    -216.89962043 Ry
     estimated scf accuracy    <       0.00146601 Ry

     iteration #  2     ecut=    60.00 Ry     beta= 0.30
     Davidson diagonalization with overlap
     ethr =  3.05E-06,  avg # of iterations =  1.0

     total cpu time spent up to now is    15211.5 secs

     total energy              =    -216.89937239 Ry
     estimated scf accuracy    <       0.00053189 Ry

     iteration #  3     ecut=    60.00 Ry     beta= 0.30
     Davidson diagonalization with overlap
     ethr =  1.11E-06,  avg # of iterations =  2.0

     total cpu time spent up to now is    15230.3 secs

     total energy              =    -216.89946947 Ry
     estimated scf accuracy    <       0.00001746 Ry

     iteration #  4     ecut=    60.00 Ry     beta= 0.30
     Davidson diagonalization with overlap
     ethr =  3.64E-08,  avg # of iterations =  3.7

     total cpu time spent up to now is    15248.5 secs

     total energy              =    -216.89947258 Ry
     estimated scf accuracy    <       0.00000661 Ry

     iteration #  5     ecut=    60.00 Ry     beta= 0.30
     Davidson diagonalization with overlap
     ethr =  1.38E-08,  avg # of iterations =  2.0

     total cpu time spent up to now is    15267.1 secs

     total energy              =    -216.89947400 Ry
     estimated scf accuracy    <       0.00000122 Ry

     iteration #  6     ecut=    60.00 Ry     beta= 0.30
     Davidson diagonalization with overlap
     ethr =  2.55E-09,  avg # of iterations =  2.1

     total cpu time spent up to now is    15285.4 secs

     total energy              =    -216.89947453 Ry
     estimated scf accuracy    <       0.00000039 Ry

     iteration #  7     ecut=    60.00 Ry     beta= 0.30
     Davidson diagonalization with overlap
     ethr =  8.07E-10,  avg # of iterations =  2.0

     total cpu time spent up to now is    15303.6 secs

     total energy              =    -216.89947472 Ry
     estimated scf accuracy    <       0.00000002 Ry

     iteration #  8     ecut=    60.00 Ry     beta= 0.30
     Davidson diagonalization with overlap
     ethr =  4.19E-11,  avg # of iterations =  3.6

     total cpu time spent up to now is    15326.9 secs

     total energy              =    -216.89947482 Ry
     estimated scf accuracy    <       0.00000002 Ry

     iteration #  9     ecut=    60.00 Ry     beta= 0.30
     Davidson diagonalization with overlap
     ethr =  3.29E-11,  avg # of iterations =  2.4

     total cpu time spent up to now is    15345.5 secs

     End of self-consistent calculation

     Number of k-points >= 100: set verbosity='high' to print the bands.

     highest occupied level (ev):     2.6876

!    total energy              =    -216.89947494 Ry
     estimated scf accuracy    <          8.6E-10 Ry

     The total energy is the sum of the following terms:
     one-electron contribution =    -113.53436608 Ry
     hartree contribution      =      81.54106180 Ry
     xc contribution           =     -49.53141465 Ry
     ewald contribution        =    -135.37475601 Ry

     convergence has been achieved in   9 iterations

     Forces acting on atoms (cartesian axes, Ry/au):

     atom    1 type  1   force =    -0.00584338   -0.01600160   -0.00264861
     atom    2 type  1   force =    -0.00334958    0.00642149   -0.01397315
     atom    3 type  1   force =     0.00525720    0.00731129    0.00057670
     atom    4 type  2   force =     0.01156661   -0.01172613    0.00221105
     atom    5 type  2   force =     0.00631014    0.00570701    0.00023835
     atom    6 type  2   force =     0.00286589   -0.01308216    0.00209176
     atom    7 type  2   force =     0.00146024   -0.01025446   -0.00399302
     atom    8 type  2   force =    -0.01029823    0.00804171    0.00467886
     atom    9 type  2   force =    -0.00796889    0.02358284    0.01081805

     Total force =     0.047024     Total SCF correction =     0.000080


     Computing stress (Cartesian axis) and pressure

          total   stress  (Ry/bohr**3)                   (kbar)     P=      -16.64
  -0.00003451  -0.00008998   0.00005433           -5.08      -13.24        7.99
  -0.00008998  -0.00029080   0.00015355          -13.24      -42.78       22.59
   0.00005433   0.00015355  -0.00001394            7.99       22.59       -2.05

     Energy error            =      2.1E-03 Ry
     Gradient error          =      2.4E-02 Ry/Bohr
     Cell gradient error     =      4.3E+01 kbar

     number of scf cycles    =  45
     number of bfgs steps    =  41

     enthalpy           old  =    -216.8973581105 Ry
     enthalpy           new  =    -216.8994749428 Ry

     CASE: enthalpy          _new < enthalpy          _old

     new trust radius        =       0.1133328364 bohr
ibrav =      4
 celldm(1) =      9.45758889
 celldm(3) =      1.04352376
Input lattice vectors:
     1.01925639    -0.00142880     0.00056736
    -0.51086557     0.87996307     0.00116453
     0.00061185     0.00198891     1.06361744
New lattice vectors in INITIAL alat:
     1.01925755     0.00000000     0.00000000
    -0.50962878     0.88270293     0.00000000
     0.00000000     0.00000000     1.06361947
New lattice vectors in NEW alat (for information only):
     1.00000000     0.00000000     0.00000000
    -0.50000000     0.86602540     0.00000000
     0.00000000     0.00000000     1.04352376
Discrepancy in bohr =     0.001537    0.003224    0.002081
     new conv_thr            =       0.0000000021 Ry

     new unit-cell volume =    764.49433 a.u.^3 (   113.28637 Ang^3 )
     density =      2.64213 g/cm^3

CELL_PARAMETERS (alat=  9.27890000)
   1.019257551   0.000000000   0.000000000
  -0.509628775   0.882702932   0.000000000
   0.000000000   0.000000000   1.063619475

ATOMIC_POSITIONS (crystal)
Si               0.2735555492        0.3648639600        0.0574020553
Si               0.6263095420        0.0951490219        0.2713399433
Si               0.1919079785        0.6351072101        0.5420138317
O                0.3018728323        0.5928952467        0.8228738330
O                0.4253996990        0.6347017919        0.2986834348
O                0.3078108946        0.9939956904        0.4774721195
O                0.5130649966        0.2385275675        0.0343593537
O                0.8530975556        0.3600956007        0.4847137835
O               -0.0796250477        0.0847159108        1.1109236453



     Writing config-only to output data dir ./tmp_quartz_ibrav4/quartz_ibrav4.save/ :
     XML data file
     NEW-OLD atomic charge density approx. for the potential
     New effective cutoffs (rho, wfc):  514.76   64.70

     total cpu time spent up to now is    15353.0 secs

     Self-consistent Calculation

     iteration #  1     ecut=    60.00 Ry     beta= 0.30
     Davidson diagonalization with overlap
     ethr =  1.00E-06,  avg # of iterations =  9.2

     total cpu time spent up to now is    15403.8 secs

     total energy              =    -216.90214890 Ry
     estimated scf accuracy    <       0.00394199 Ry

     iteration #  2     ecut=    60.00 Ry     beta= 0.30
     Davidson diagonalization with overlap
     ethr =  8.21E-06,  avg # of iterations =  1.0

     total cpu time spent up to now is    15417.6 secs

     total energy              =    -216.90146338 Ry
     estimated scf accuracy    <       0.00143073 Ry

     iteration #  3     ecut=    60.00 Ry     beta= 0.30
     Davidson diagonalization with overlap
     ethr =  2.98E-06,  avg # of iterations =  2.0

     total cpu time spent up to now is    15436.3 secs

     total energy              =    -216.90172140 Ry
     estimated scf accuracy    <       0.00004410 Ry

     iteration #  4     ecut=    60.00 Ry     beta= 0.30
     Davidson diagonalization with overlap
     ethr =  9.19E-08,  avg # of iterations =  3.4

     total cpu time spent up to now is    15454.6 secs

     total energy              =    -216.90172888 Ry
     estimated scf accuracy    <       0.00001634 Ry

     iteration #  5     ecut=    60.00 Ry     beta= 0.30
     Davidson diagonalization with overlap
     ethr =  3.40E-08,  avg # of iterations =  2.0

     total cpu time spent up to now is    15472.6 secs

     total energy              =    -216.90173176 Ry
     estimated scf accuracy    <       0.00000261 Ry

     iteration #  6     ecut=    60.00 Ry     beta= 0.30
     Davidson diagonalization with overlap
     ethr =  5.43E-09,  avg # of iterations =  2.2

     total cpu time spent up to now is    15491.7 secs

     total energy              =    -216.90173267 Ry
     estimated scf accuracy    <       0.00000068 Ry

     iteration #  7     ecut=    60.00 Ry     beta= 0.30
     Davidson diagonalization with overlap
     ethr =  1.41E-09,  avg # of iterations =  2.0

     total cpu time spent up to now is    15510.0 secs

     total energy              =    -216.90173317 Ry
     estimated scf accuracy    <       0.00000006 Ry

     iteration #  8     ecut=    60.00 Ry     beta= 0.30
     Davidson diagonalization with overlap
     ethr =  1.17E-10,  avg # of iterations =  4.7

     total cpu time spent up to now is    15535.1 secs

     total energy              =    -216.90173339 Ry
     estimated scf accuracy    <       0.00000007 Ry

     iteration #  9     ecut=    60.00 Ry     beta= 0.30
     Davidson diagonalization with overlap
     ethr =  1.17E-10,  avg # of iterations =  3.9

     total cpu time spent up to now is    15558.2 secs

     total energy              =    -216.90173352 Ry
     estimated scf accuracy    <       0.00000001 Ry

     iteration # 10     ecut=    60.00 Ry     beta= 0.30
     Davidson diagonalization with overlap
     ethr =  2.40E-11,  avg # of iterations =  2.9

     total cpu time spent up to now is    15577.4 secs

     End of self-consistent calculation

     Number of k-points >= 100: set verbosity='high' to print the bands.

     highest occupied level (ev):     2.6566

!    total energy              =    -216.90173362 Ry
     estimated scf accuracy    <          3.1E-10 Ry

     The total energy is the sum of the following terms:
     one-electron contribution =    -112.60925016 Ry
     hartree contribution      =      81.14312536 Ry
     xc contribution           =     -49.52956843 Ry
     ewald contribution        =    -135.90604041 Ry

     convergence has been achieved in  10 iterations

     Forces acting on atoms (cartesian axes, Ry/au):

     atom    1 type  1   force =    -0.00389281   -0.00754210   -0.00084644
     atom    2 type  1   force =    -0.00619948    0.00853008   -0.00854224
     atom    3 type  1   force =     0.00869552    0.00254844    0.00379022
     atom    4 type  2   force =     0.00695959   -0.01224080   -0.00398050
     atom    5 type  2   force =    -0.00465608    0.00187865   -0.00001507
     atom    6 type  2   force =     0.00542571   -0.01076873   -0.00008593
     atom    7 type  2   force =     0.00559056   -0.00970485    0.00060846
     atom    8 type  2   force =    -0.00845092    0.00667073    0.00237160
     atom    9 type  2   force =    -0.00347209    0.02062858    0.00669990

     Total force =     0.038314     Total SCF correction =     0.000031


     Computing stress (Cartesian axis) and pressure

          total   stress  (Ry/bohr**3)                   (kbar)     P=      -16.35
  -0.00004490  -0.00008887   0.00003218           -6.61      -13.07        4.73
  -0.00008887  -0.00027560   0.00011292          -13.07      -40.54       16.61
   0.00003218   0.00011292  -0.00001302            4.73       16.61       -1.92

     Energy error            =      2.3E-03 Ry
     Gradient error          =      2.1E-02 Ry/Bohr
     Cell gradient error     =      4.1E+01 kbar

     number of scf cycles    =  46
     number of bfgs steps    =  42

     enthalpy           old  =    -216.8994749428 Ry
     enthalpy           new  =    -216.9017336244 Ry

     CASE: enthalpy          _new < enthalpy          _old

     new trust radius        =       0.0679832557 bohr
ibrav =      4
 celldm(1) =      9.46460488
 celldm(3) =      1.03793205
Input lattice vectors:
     1.02001155    -0.00200701     0.00054840
    -0.51174390     0.88019448     0.00168460
     0.00057605     0.00261649     1.05870150
New lattice vectors in INITIAL alat:
     1.02001367     0.00000000     0.00000000
    -0.51000684     0.88335775     0.00000000
     0.00000000     0.00000000     1.05870489
New lattice vectors in NEW alat (for information only):
     1.00000000     0.00000000     0.00000000
    -0.50000000     0.86602540     0.00000000
     0.00000000     0.00000000     1.03793205
Discrepancy in bohr =     0.002081    0.003983    0.002679
     new conv_thr            =       0.0000000021 Ry

     new unit-cell volume =    762.09133 a.u.^3 (   112.93028 Ang^3 )
     density =      2.65046 g/cm^3

CELL_PARAMETERS (alat=  9.27890000)
   1.020013674   0.000000000   0.000000000
  -0.510006837   0.883357754   0.000000000
   0.000000000   0.000000000   1.058704885

ATOMIC_POSITIONS (crystal)
Si               0.2729691729        0.3630436826        0.0585323826
Si               0.6260972713        0.0978119336        0.2704958577
Si               0.1935220543        0.6346335934        0.5421974529
O                0.3016823706        0.5939684035        0.8250935067
O                0.4289025853        0.6325787770        0.3014512404
O                0.3084270372        0.9926096548        0.4765951684
O                0.5096016316        0.2334190736        0.0294237352
O                0.8518094286        0.3662584068        0.4827751382
O               -0.0796175518        0.0857284748        1.1132175178



     Writing config-only to output data dir ./tmp_quartz_ibrav4/quartz_ibrav4.save/ :
     XML data file
     NEW-OLD atomic charge density approx. for the potential
     New effective cutoffs (rho, wfc):  519.35   65.29

     total cpu time spent up to now is    15584.8 secs

     Self-consistent Calculation

     iteration #  1     ecut=    60.00 Ry     beta= 0.30
     Davidson diagonalization with overlap
     ethr =  1.00E-06,  avg # of iterations =  6.3

     total cpu time spent up to now is    15625.4 secs

     total energy              =    -216.90293314 Ry
     estimated scf accuracy    <       0.00135423 Ry

     iteration #  2     ecut=    60.00 Ry     beta= 0.30
     Davidson diagonalization with overlap
     ethr =  2.82E-06,  avg # of iterations =  1.0

     total cpu time spent up to now is    15639.1 secs

     total energy              =    -216.90269549 Ry
     estimated scf accuracy    <       0.00050689 Ry

     iteration #  3     ecut=    60.00 Ry     beta= 0.30
     Davidson diagonalization with overlap
     ethr =  1.06E-06,  avg # of iterations =  2.0

     total cpu time spent up to now is    15658.2 secs

     total energy              =    -216.90279421 Ry
     estimated scf accuracy    <       0.00001675 Ry

     iteration #  4     ecut=    60.00 Ry     beta= 0.30
     Davidson diagonalization with overlap
     ethr =  3.49E-08,  avg # of iterations =  3.9

     total cpu time spent up to now is    15676.2 secs

     total energy              =    -216.90279681 Ry
     estimated scf accuracy    <       0.00000760 Ry

     iteration #  5     ecut=    60.00 Ry     beta= 0.30
     Davidson diagonalization with overlap
     ethr =  1.58E-08,  avg # of iterations =  2.0

     total cpu time spent up to now is    15694.3 secs

     total energy              =    -216.90279830 Ry
     estimated scf accuracy    <       0.00000116 Ry

     iteration #  6     ecut=    60.00 Ry     beta= 0.30
     Davidson diagonalization with overlap
     ethr =  2.42E-09,  avg # of iterations =  2.0

     total cpu time spent up to now is    15712.6 secs

     total energy              =    -216.90279864 Ry
     estimated scf accuracy    <       0.00000031 Ry

     iteration #  7     ecut=    60.00 Ry     beta= 0.30
     Davidson diagonalization with overlap
     ethr =  6.52E-10,  avg # of iterations =  2.0

     total cpu time spent up to now is    15731.5 secs

     total energy              =    -216.90279886 Ry
     estimated scf accuracy    <       0.00000003 Ry

     iteration #  8     ecut=    60.00 Ry     beta= 0.30
     Davidson diagonalization with overlap
     ethr =  6.19E-11,  avg # of iterations =  3.1

     total cpu time spent up to now is    15752.6 secs

     total energy              =    -216.90279895 Ry
     estimated scf accuracy    <       0.00000001 Ry

     iteration #  9     ecut=    60.00 Ry     beta= 0.30
     Davidson diagonalization with overlap
     ethr =  3.04E-11,  avg # of iterations =  2.2

     total cpu time spent up to now is    15771.4 secs

     End of self-consistent calculation

     Number of k-points >= 100: set verbosity='high' to print the bands.

     highest occupied level (ev):     2.6611

!    total energy              =    -216.90279901 Ry
     estimated scf accuracy    <          9.3E-10 Ry

     The total energy is the sum of the following terms:
     one-electron contribution =    -112.00826994 Ry
     hartree contribution      =      80.89759367 Ry
     xc contribution           =     -49.53572093 Ry
     ewald contribution        =    -136.25640181 Ry

     convergence has been achieved in   9 iterations

     Forces acting on atoms (cartesian axes, Ry/au):

     atom    1 type  1   force =    -0.00034402   -0.00074556   -0.00022180
     atom    2 type  1   force =    -0.00297034    0.00632612   -0.00465653
     atom    3 type  1   force =     0.00621921    0.00226894    0.00121389
     atom    4 type  2   force =     0.00654871   -0.01509737   -0.00296121
     atom    5 type  2   force =    -0.00734609   -0.00399388   -0.00286107
     atom    6 type  2   force =     0.00561711   -0.00626896   -0.00134354
     atom    7 type  2   force =     0.00271002   -0.00660729    0.00303981
     atom    8 type  2   force =    -0.00614666    0.00698819    0.00303253
     atom    9 type  2   force =    -0.00428794    0.01712981    0.00475790

     Total force =     0.032209     Total SCF correction =     0.000102


     Computing stress (Cartesian axis) and pressure

          total   stress  (Ry/bohr**3)                   (kbar)     P=      -13.66
  -0.00004295  -0.00009224   0.00003510           -6.32      -13.57        5.16
  -0.00009224  -0.00024160   0.00009030          -13.57      -35.54       13.28
   0.00003510   0.00009030   0.00000588            5.16       13.28        0.87

     Energy error            =      1.1E-03 Ry
     Gradient error          =      1.7E-02 Ry/Bohr
     Cell gradient error     =      3.6E+01 kbar

     number of scf cycles    =  47
     number of bfgs steps    =  43

     enthalpy           old  =    -216.9017336244 Ry
     enthalpy           new  =    -216.9027990066 Ry

     CASE: enthalpy          _new < enthalpy          _old

     new trust radius        =       0.0607720602 bohr
ibrav =      4
 celldm(1) =      9.45824841
 celldm(3) =      1.03809049
Input lattice vectors:
     1.01932577    -0.00230897     0.00070218
    -0.51166251     0.88011425     0.00130003
     0.00076197     0.00224439     1.05815270
New lattice vectors in INITIAL alat:
     1.01932863     0.00000000     0.00000000
    -0.50966431     0.88276449     0.00000000
     0.00000000     0.00000000     1.05815536
New lattice vectors in NEW alat (for information only):
     1.00000000     0.00000000     0.00000000
    -0.50000000     0.86602540     0.00000000
     0.00000000     0.00000000     1.03809049
Discrepancy in bohr =     0.002413    0.003565    0.002370
     new conv_thr            =       0.0000000011 Ry

     new unit-cell volume =    760.67299 a.u.^3 (   112.72011 Ang^3 )
     density =      2.65540 g/cm^3

CELL_PARAMETERS (alat=  9.27890000)
   1.019328628   0.000000000   0.000000000
  -0.509664314   0.882764487   0.000000000
   0.000000000   0.000000000   1.058155359

ATOMIC_POSITIONS (crystal)
Si               0.2725937716        0.3617354008        0.0594505302
Si               0.6271215486        0.1009373066        0.2694017405
Si               0.1955641960        0.6336034875        0.5429301487
O                0.3002865988        0.5937829512        0.8270558850
O                0.4294506199        0.6303551896        0.3027275734
O                0.3102410421        0.9919843704        0.4760814323
O                0.5073823427        0.2300809481        0.0262605455
O                0.8511628558        0.3718458490        0.4804193480
O               -0.0804089755        0.0857264968        1.1154547964



     Writing config-only to output data dir ./tmp_quartz_ibrav4/quartz_ibrav4.save/ :
     XML data file
     NEW-OLD atomic charge density approx. for the potential
     New effective cutoffs (rho, wfc):  519.89   65.36

     total cpu time spent up to now is    15779.1 secs

     Self-consistent Calculation

     iteration #  1     ecut=    60.00 Ry     beta= 0.30
     Davidson diagonalization with overlap
     ethr =  1.00E-06,  avg # of iterations =  7.0

     total cpu time spent up to now is    15817.9 secs

     total energy              =    -216.90369244 Ry
     estimated scf accuracy    <       0.00090789 Ry

     iteration #  2     ecut=    60.00 Ry     beta= 0.30
     Davidson diagonalization with overlap
     ethr =  1.89E-06,  avg # of iterations =  1.0

     total cpu time spent up to now is    15832.1 secs

     total energy              =    -216.90355930 Ry
     estimated scf accuracy    <       0.00032206 Ry

     iteration #  3     ecut=    60.00 Ry     beta= 0.30
     Davidson diagonalization with overlap
     ethr =  6.71E-07,  avg # of iterations =  2.0

     total cpu time spent up to now is    15851.1 secs

     total energy              =    -216.90361517 Ry
     estimated scf accuracy    <       0.00001286 Ry

     iteration #  4     ecut=    60.00 Ry     beta= 0.30
     Davidson diagonalization with overlap
     ethr =  2.68E-08,  avg # of iterations =  3.3

     total cpu time spent up to now is    15870.2 secs

     total energy              =    -216.90361773 Ry
     estimated scf accuracy    <       0.00000442 Ry

     iteration #  5     ecut=    60.00 Ry     beta= 0.30
     Davidson diagonalization with overlap
     ethr =  9.20E-09,  avg # of iterations =  2.0

     total cpu time spent up to now is    15888.5 secs

     total energy              =    -216.90361859 Ry
     estimated scf accuracy    <       0.00000064 Ry

     iteration #  6     ecut=    60.00 Ry     beta= 0.30
     Davidson diagonalization with overlap
     ethr =  1.32E-09,  avg # of iterations =  2.1

     total cpu time spent up to now is    15907.5 secs

     total energy              =    -216.90361893 Ry
     estimated scf accuracy    <       0.00000016 Ry

     iteration #  7     ecut=    60.00 Ry     beta= 0.30
     Davidson diagonalization with overlap
     ethr =  3.35E-10,  avg # of iterations =  2.0

     total cpu time spent up to now is    15925.9 secs

     total energy              =    -216.90361910 Ry
     estimated scf accuracy    <       0.00000002 Ry

     iteration #  8     ecut=    60.00 Ry     beta= 0.30
     Davidson diagonalization with overlap
     ethr =  3.90E-11,  avg # of iterations =  3.7

     total cpu time spent up to now is    15949.7 secs

     total energy              =    -216.90361915 Ry
     estimated scf accuracy    <       0.00000002 Ry

     iteration #  9     ecut=    60.00 Ry     beta= 0.30
     Davidson diagonalization with overlap
     ethr =  3.90E-11,  avg # of iterations =  3.1

     total cpu time spent up to now is    15969.8 secs

     End of self-consistent calculation

     Number of k-points >= 100: set verbosity='high' to print the bands.

     highest occupied level (ev):     2.7037

!    total energy              =    -216.90361921 Ry
     estimated scf accuracy    <          7.9E-10 Ry

     The total energy is the sum of the following terms:
     one-electron contribution =    -111.95473667 Ry
     hartree contribution      =      80.90267711 Ry
     xc contribution           =     -49.54807327 Ry
     ewald contribution        =    -136.30348638 Ry

     convergence has been achieved in   9 iterations

     Forces acting on atoms (cartesian axes, Ry/au):

     atom    1 type  1   force =    -0.00080915    0.00237154    0.00171171
     atom    2 type  1   force =    -0.00559205    0.00248703    0.00266612
     atom    3 type  1   force =     0.00048811    0.00745840   -0.00500516
     atom    4 type  2   force =     0.00727695   -0.01687599   -0.00266268
     atom    5 type  2   force =    -0.00485955   -0.00918542   -0.00517005
     atom    6 type  2   force =     0.00609946   -0.00501060   -0.00123951
     atom    7 type  2   force =     0.00107645   -0.00449714    0.00370699
     atom    8 type  2   force =    -0.00350172    0.00759023    0.00477143
     atom    9 type  2   force =    -0.00017851    0.01566195    0.00122115

     Total force =     0.032445     Total SCF correction =     0.000069


     Computing stress (Cartesian axis) and pressure

          total   stress  (Ry/bohr**3)                   (kbar)     P=       -9.29
  -0.00000353  -0.00009577   0.00003484           -0.52      -14.09        5.12
  -0.00009577  -0.00020192   0.00008554          -14.09      -29.70       12.58
   0.00003484   0.00008554   0.00001597            5.12       12.58        2.35

     Energy error            =      8.2E-04 Ry
     Gradient error          =      1.7E-02 Ry/Bohr
     Cell gradient error     =      3.0E+01 kbar

     number of scf cycles    =  48
     number of bfgs steps    =  44

     enthalpy           old  =    -216.9027990066 Ry
     enthalpy           new  =    -216.9036192095 Ry

     CASE: enthalpy          _new < enthalpy          _old

     new trust radius        =       0.0575871393 bohr
ibrav =      4
 celldm(1) =      9.45545076
 celldm(3) =      1.03959206
Input lattice vectors:
     1.01902443    -0.00227586     0.00055005
    -0.51148317     0.88057525     0.00138385
     0.00060624     0.00223511     1.05936997
New lattice vectors in INITIAL alat:
     1.01902712     0.00000000     0.00000000
    -0.50951356     0.88250337     0.00000000
     0.00000000     0.00000000     1.05937250
New lattice vectors in NEW alat (for information only):
     1.00000000     0.00000000     0.00000000
    -0.50000000     0.86602540     0.00000000
     0.00000000     0.00000000     1.03959206
Discrepancy in bohr =     0.002341    0.003084    0.002316
     new conv_thr            =       0.0000000008 Ry

     new unit-cell volume =    761.09750 a.u.^3 (   112.78301 Ang^3 )
     density =      2.65392 g/cm^3

CELL_PARAMETERS (alat=  9.27890000)
   1.019027122   0.000000000   0.000000000
  -0.509513561   0.882503374   0.000000000
   0.000000000   0.000000000   1.059372504

ATOMIC_POSITIONS (crystal)
Si               0.2728254094        0.3612460801        0.0602809005
Si               0.6279766913        0.1042636826        0.2693459637
Si               0.1973173921        0.6324433177        0.5435827594
O                0.2982021825        0.5924645770        0.8278193724
O                0.4281194347        0.6275799931        0.3033829338
O                0.3122750268        0.9914513765        0.4755098532
O                0.5063434337        0.2275456278        0.0242062393
O                0.8505261106        0.3772262339        0.4784239588
O               -0.0801916812        0.0858311113        1.1172300189



     Writing config-only to output data dir ./tmp_quartz_ibrav4/quartz_ibrav4.save/ :
     XML data file
     NEW-OLD atomic charge density approx. for the potential
     New effective cutoffs (rho, wfc):  518.75   65.21

     total cpu time spent up to now is    15977.0 secs

     Self-consistent Calculation

     iteration #  1     ecut=    60.00 Ry     beta= 0.30
     Davidson diagonalization with overlap
     ethr =  1.00E-06,  avg # of iterations =  6.7

     total cpu time spent up to now is    16014.5 secs

     total energy              =    -216.90431607 Ry
     estimated scf accuracy    <       0.00072649 Ry

     iteration #  2     ecut=    60.00 Ry     beta= 0.30
     Davidson diagonalization with overlap
     ethr =  1.51E-06,  avg # of iterations =  1.0

     total cpu time spent up to now is    16027.9 secs

     total energy              =    -216.90422212 Ry
     estimated scf accuracy    <       0.00024790 Ry

     iteration #  3     ecut=    60.00 Ry     beta= 0.30
     Davidson diagonalization with overlap
     ethr =  5.16E-07,  avg # of iterations =  2.0

     total cpu time spent up to now is    16046.2 secs

     total energy              =    -216.90426424 Ry
     estimated scf accuracy    <       0.00001603 Ry

     iteration #  4     ecut=    60.00 Ry     beta= 0.30
     Davidson diagonalization with overlap
     ethr =  3.34E-08,  avg # of iterations =  2.4

     total cpu time spent up to now is    16064.3 secs

     total energy              =    -216.90426731 Ry
     estimated scf accuracy    <       0.00000350 Ry

     iteration #  5     ecut=    60.00 Ry     beta= 0.30
     Davidson diagonalization with overlap
     ethr =  7.28E-09,  avg # of iterations =  2.1

     total cpu time spent up to now is    16081.1 secs

     total energy              =    -216.90426775 Ry
     estimated scf accuracy    <       0.00000095 Ry

     iteration #  6     ecut=    60.00 Ry     beta= 0.30
     Davidson diagonalization with overlap
     ethr =  1.97E-09,  avg # of iterations =  2.7

     total cpu time spent up to now is    16100.4 secs

     total energy              =    -216.90426796 Ry
     estimated scf accuracy    <       0.00000035 Ry

     iteration #  7     ecut=    60.00 Ry     beta= 0.30
     Davidson diagonalization with overlap
     ethr =  7.37E-10,  avg # of iterations =  2.5

     total cpu time spent up to now is    16118.8 secs

     total energy              =    -216.90426807 Ry
     estimated scf accuracy    <       0.00000002 Ry

     iteration #  8     ecut=    60.00 Ry     beta= 0.30
     Davidson diagonalization with overlap
     ethr =  3.80E-11,  avg # of iterations =  5.9

     total cpu time spent up to now is    16148.4 secs

     total energy              =    -216.90426806 Ry
     estimated scf accuracy    <       0.00000009 Ry

     iteration #  9     ecut=    60.00 Ry     beta= 0.30
     Davidson diagonalization with overlap
     ethr =  3.80E-11,  avg # of iterations =  4.9

     total cpu time spent up to now is    16176.0 secs

     total energy              =    -216.90426810 Ry
     estimated scf accuracy    <          3.4E-09 Ry

     iteration # 10     ecut=    60.00 Ry     beta= 0.30
     Davidson diagonalization with overlap
     ethr =  7.10E-12,  avg # of iterations =  3.0

     total cpu time spent up to now is    16195.1 secs

     End of self-consistent calculation

     Number of k-points >= 100: set verbosity='high' to print the bands.

     highest occupied level (ev):     2.7186

!    total energy              =    -216.90426809 Ry
     estimated scf accuracy    <          1.1E-10 Ry

     The total energy is the sum of the following terms:
     one-electron contribution =    -112.26203346 Ry
     hartree contribution      =      81.04513034 Ry
     xc contribution           =     -49.55414711 Ry
     ewald contribution        =    -136.13321786 Ry

     convergence has been achieved in  10 iterations

     Forces acting on atoms (cartesian axes, Ry/au):

     atom    1 type  1   force =    -0.00074229    0.00143181    0.00107044
     atom    2 type  1   force =    -0.00259684    0.00018723    0.00400573
     atom    3 type  1   force =    -0.00664095    0.01244346   -0.01265160
     atom    4 type  2   force =     0.01018045   -0.01835807    0.00105541
     atom    5 type  2   force =     0.00007017   -0.01154735   -0.00698501
     atom    6 type  2   force =     0.00635744   -0.00533977    0.00064769
     atom    7 type  2   force =    -0.00327701   -0.00108283    0.00422511
     atom    8 type  2   force =    -0.00080372    0.00836967    0.00638952
     atom    9 type  2   force =    -0.00254725    0.01389587    0.00224271

     Total force =     0.037746     Total SCF correction =     0.000008


     Computing stress (Cartesian axis) and pressure

          total   stress  (Ry/bohr**3)                   (kbar)     P=       -6.84
   0.00000671  -0.00008871   0.00004787            0.99      -13.05        7.04
  -0.00008871  -0.00016478   0.00009001          -13.05      -24.24       13.24
   0.00004787   0.00009001   0.00001860            7.04       13.24        2.74

     Energy error            =      6.5E-04 Ry
     Gradient error          =      1.8E-02 Ry/Bohr
     Cell gradient error     =      2.4E+01 kbar

     number of scf cycles    =  49
     number of bfgs steps    =  45

     enthalpy           old  =    -216.9036192095 Ry
     enthalpy           new  =    -216.9042680903 Ry

     CASE: enthalpy          _new < enthalpy          _old

     new trust radius        =       0.0804350987 bohr
ibrav =      4
 celldm(1) =      9.45554371
 celldm(3) =      1.04166010
Input lattice vectors:
     1.01903493    -0.00203734     0.00059149
    -0.51128185     0.88113533     0.00120089
     0.00063650     0.00205161     1.06148816
New lattice vectors in INITIAL alat:
     1.01903714     0.00000000     0.00000000
    -0.50951857     0.88251205     0.00000000
     0.00000000     0.00000000     1.06149033
New lattice vectors in NEW alat (for information only):
     1.00000000     0.00000000     0.00000000
    -0.50000000     0.86602540     0.00000000
     0.00000000     0.00000000     1.04166010
Discrepancy in bohr =     0.002121    0.002539    0.002148
     new conv_thr            =       0.0000000006 Ry

     new unit-cell volume =    762.63403 a.u.^3 (   113.01070 Ang^3 )
     density =      2.64857 g/cm^3

CELL_PARAMETERS (alat=  9.27890000)
   1.019037139   0.000000000   0.000000000
  -0.509518570   0.882512050   0.000000000
   0.000000000   0.000000000   1.061490328

ATOMIC_POSITIONS (crystal)
Si               0.2727635878        0.3603785376        0.0612627354
Si               0.6304197838        0.1091391356        0.2693956253
Si               0.1998979296        0.6318455895        0.5436625389
O                0.2941980308        0.5894101375        0.8287192323
O                0.4257746574        0.6224793130        0.3041029166
O                0.3161771110        0.9917933273        0.4747816999
O                0.5044027703        0.2245281273        0.0223341098
O                0.8505932498        0.3853340027        0.4758484988
O               -0.0808331205        0.0851438295        1.1196746431



     Writing config-only to output data dir ./tmp_quartz_ibrav4/quartz_ibrav4.save/ :
     XML data file
     NEW-OLD atomic charge density approx. for the potential
     New effective cutoffs (rho, wfc):  516.76   64.96

     total cpu time spent up to now is    16202.9 secs

     Self-consistent Calculation

     iteration #  1     ecut=    60.00 Ry     beta= 0.30
     Davidson diagonalization with overlap
     ethr =  1.00E-06,  avg # of iterations =  7.9

     total cpu time spent up to now is    16246.9 secs

     total energy              =    -216.90523118 Ry
     estimated scf accuracy    <       0.00150973 Ry

     iteration #  2     ecut=    60.00 Ry     beta= 0.30
     Davidson diagonalization with overlap
     ethr =  3.15E-06,  avg # of iterations =  1.0

     total cpu time spent up to now is    16260.3 secs

     total energy              =    -216.90503704 Ry
     estimated scf accuracy    <       0.00051576 Ry

     iteration #  3     ecut=    60.00 Ry     beta= 0.30
     Davidson diagonalization with overlap
     ethr =  1.07E-06,  avg # of iterations =  2.0

     total cpu time spent up to now is    16278.7 secs

     total energy              =    -216.90511805 Ry
     estimated scf accuracy    <       0.00003398 Ry

     iteration #  4     ecut=    60.00 Ry     beta= 0.30
     Davidson diagonalization with overlap
     ethr =  7.08E-08,  avg # of iterations =  2.7

     total cpu time spent up to now is    16297.1 secs

     total energy              =    -216.90512468 Ry
     estimated scf accuracy    <       0.00000619 Ry

     iteration #  5     ecut=    60.00 Ry     beta= 0.30
     Davidson diagonalization with overlap
     ethr =  1.29E-08,  avg # of iterations =  2.2

     total cpu time spent up to now is    16313.8 secs

     total energy              =    -216.90512555 Ry
     estimated scf accuracy    <       0.00000147 Ry

     iteration #  6     ecut=    60.00 Ry     beta= 0.30
     Davidson diagonalization with overlap
     ethr =  3.07E-09,  avg # of iterations =  2.2

     total cpu time spent up to now is    16332.5 secs

     total energy              =    -216.90512606 Ry
     estimated scf accuracy    <       0.00000027 Ry

     iteration #  7     ecut=    60.00 Ry     beta= 0.30
     Davidson diagonalization with overlap
     ethr =  5.65E-10,  avg # of iterations =  2.8

     total cpu time spent up to now is    16352.2 secs

     total energy              =    -216.90512625 Ry
     estimated scf accuracy    <       0.00000003 Ry

     iteration #  8     ecut=    60.00 Ry     beta= 0.30
     Davidson diagonalization with overlap
     ethr =  6.58E-11,  avg # of iterations =  2.8

     total cpu time spent up to now is    16370.8 secs

     total energy              =    -216.90512630 Ry
     estimated scf accuracy    <       0.00000001 Ry

     iteration #  9     ecut=    60.00 Ry     beta= 0.30
     Davidson diagonalization with overlap
     ethr =  2.52E-11,  avg # of iterations =  4.6

     total cpu time spent up to now is    16395.0 secs

     total energy              =    -216.90512637 Ry
     estimated scf accuracy    <       0.00000001 Ry

     iteration # 10     ecut=    60.00 Ry     beta= 0.30
     Davidson diagonalization with overlap
     ethr =  2.52E-11,  avg # of iterations =  3.9

     total cpu time spent up to now is    16417.9 secs

     total energy              =    -216.90512639 Ry
     estimated scf accuracy    <          5.8E-09 Ry

     iteration # 11     ecut=    60.00 Ry     beta= 0.30
     Davidson diagonalization with overlap
     ethr =  1.20E-11,  avg # of iterations =  1.4

     total cpu time spent up to now is    16431.8 secs

     total energy              =    -216.90512640 Ry
     estimated scf accuracy    <          3.1E-09 Ry

     iteration # 12     ecut=    60.00 Ry     beta= 0.30
     Davidson diagonalization with overlap
     ethr =  6.41E-12,  avg # of iterations =  2.6

     total cpu time spent up to now is    16450.2 secs

     End of self-consistent calculation

     Number of k-points >= 100: set verbosity='high' to print the bands.

     highest occupied level (ev):     2.7193

!    total energy              =    -216.90512641 Ry
     estimated scf accuracy    <          2.3E-11 Ry

     The total energy is the sum of the following terms:
     one-electron contribution =    -112.88537233 Ry
     hartree contribution      =      81.32027427 Ry
     xc contribution           =     -49.55941688 Ry
     ewald contribution        =    -135.78061147 Ry

     convergence has been achieved in  12 iterations

     Forces acting on atoms (cartesian axes, Ry/au):

     atom    1 type  1   force =    -0.00281342   -0.00161686    0.00038091
     atom    2 type  1   force =    -0.00453142    0.00091362    0.00476926
     atom    3 type  1   force =    -0.01223393    0.01680771   -0.01694393
     atom    4 type  2   force =     0.01210066   -0.01803353    0.00136152
     atom    5 type  2   force =     0.00471202   -0.01199097   -0.00686570
     atom    6 type  2   force =     0.00857343   -0.00764047    0.00298245
     atom    7 type  2   force =    -0.00413012    0.00100582    0.00539824
     atom    8 type  2   force =     0.00084220    0.00731417    0.00617739
     atom    9 type  2   force =    -0.00251942    0.01324051    0.00273985

     Total force =     0.043934     Total SCF correction =     0.000015


     Computing stress (Cartesian axis) and pressure

          total   stress  (Ry/bohr**3)                   (kbar)     P=       -4.34
   0.00002162  -0.00007165   0.00005062            3.18      -10.54        7.45
  -0.00007165  -0.00010998   0.00009917          -10.54      -16.18       14.59
   0.00005062   0.00009917  -0.00000009            7.45       14.59       -0.01

     Energy error            =      8.6E-04 Ry
     Gradient error          =      1.8E-02 Ry/Bohr
     Cell gradient error     =      1.6E+01 kbar

     number of scf cycles    =  50
     number of bfgs steps    =  46

     enthalpy           old  =    -216.9042680903 Ry
     enthalpy           new  =    -216.9051264111 Ry

     CASE: enthalpy          _new < enthalpy          _old

     new trust radius        =       0.0884969300 bohr
ibrav =      4
 celldm(1) =      9.46144113
 celldm(3) =      1.04161133
Input lattice vectors:
     1.01967266    -0.00026132     0.00021228
    -0.51006263     0.88328769     0.00029641
     0.00023441     0.00054876     1.06210248
New lattice vectors in INITIAL alat:
     1.01967271     0.00000000     0.00000000
    -0.50983636     0.88306247     0.00000000
     0.00000000     0.00000000     1.06210265
New lattice vectors in NEW alat (for information only):
     1.00000000     0.00000000     0.00000000
    -0.50000000     0.86602540     0.00000000
     0.00000000     0.00000000     1.04161133
Discrepancy in bohr =     0.000337    0.000436    0.000597

     The maximum number of steps has been reached.

     End of BFGS Geometry Optimization
     new unit-cell volume =    764.02611 a.u.^3 (   113.21699 Ang^3 )
     density =      2.64375 g/cm^3

CELL_PARAMETERS (alat=  9.27890000)
   1.019672712   0.000000000   0.000000000
  -0.509836356   0.883062472   0.000000000
   0.000000000   0.000000000   1.062102652

ATOMIC_POSITIONS (crystal)
Si               0.2724730150        0.3592204975        0.0623015407
Si               0.6328090577        0.1145012293        0.2695667961
Si               0.2024696197        0.6315022057        0.5432758539
O                0.2901762070        0.5861871773        0.8295373386
O                0.4238230210        0.6166897228        0.3052009771
O                0.3203786054        0.9920149939        0.4741553058
O                0.5020013936        0.2210756085        0.0201202831
O                0.8505604176        0.3942815507        0.4732649655
O               -0.0812973371        0.0845790144        1.1223589393



     Writing config-only to output data dir ./tmp_quartz_ibrav4/quartz_ibrav4.save/ :
     XML data file
     NEW-OLD atomic charge density approx. for the potential
     New effective cutoffs (rho, wfc):  516.16   64.88

     Writing all to output data dir ./tmp_quartz_ibrav4/quartz_ibrav4.save/ :
     XML data file, charge density, pseudopotentials, collected wavefunctions

     init_run     :     10.08s CPU     10.24s WALL (       1 calls)
     electrons    :  16003.46s CPU  16075.37s WALL (      50 calls)
     update_pot   :      2.14s CPU      2.17s WALL (      50 calls)
     forces       :     75.69s CPU     76.70s WALL (      50 calls)
     stress       :    285.97s CPU    288.21s WALL (      50 calls)

     Called by init_run:
     wfcinit      :      9.01s CPU      9.12s WALL (       1 calls)
     potinit      :      0.24s CPU      0.26s WALL (       1 calls)
     hinit0       :      0.66s CPU      0.68s WALL (       1 calls)

     Called by electrons:
     c_bands      :  14174.45s CPU  14225.72s WALL (     741 calls)
     sum_band     :   1756.71s CPU   1770.05s WALL (     741 calls)
     v_of_rho     :     14.24s CPU     14.30s WALL (     792 calls)
     newd         :     48.44s CPU     55.99s WALL (     792 calls)
     mix_rho      :      8.10s CPU      8.12s WALL (     741 calls)

     Called by c_bands:
     init_us_2    :    275.20s CPU    277.01s WALL (  177296 calls)
     cegterg      :  13687.81s CPU  13735.83s WALL (   83006 calls)

     Called by *egterg:
     cdiaghg      :    240.72s CPU    241.87s WALL (  468478 calls)
     h_psi        :  10852.14s CPU  10891.45s WALL (  474092 calls)
     s_psi        :    475.45s CPU    477.11s WALL (  474092 calls)
     g_psi        :    100.37s CPU    100.74s WALL (  390974 calls)

     Called by h_psi:
     h_psi:calbec :    573.84s CPU    576.08s WALL (  474092 calls)
     vloc_psi     :   9724.23s CPU   9759.59s WALL (  474092 calls)
     add_vuspsi   :    503.41s CPU    505.49s WALL (  474092 calls)

     General routines
     calbec       :    900.25s CPU    903.72s WALL (  652284 calls)
     fft          :     13.21s CPU     13.28s WALL (    4951 calls)
     ffts         :      1.59s CPU      1.61s WALL (    1533 calls)
     fftw         :   8999.00s CPU   9031.74s WALL (14741744 calls)
     interpolate  :      3.66s CPU      3.69s WALL (     792 calls)
     davcio       :      0.01s CPU      0.85s WALL (     112 calls)

     Parallel routines

     PWSCF        :      4h33m CPU      4h34m WALL


   This run was terminated on:   3: 2:29  26Nov2025            

=------------------------------------------------------------------------------=
   JOB DONE.
=------------------------------------------------------------------------------=
