
     Program PWSCF v.7.4.1 starts on 17Nov2025 at  2:39:49 

     This program is part of the open-source Quantum ESPRESSO suite
     for quantum simulation of materials; please cite
         "P. Giannozzi et al., J. Phys.:Condens. Matter 21 395502 (2009);
         "P. Giannozzi et al., J. Phys.:Condens. Matter 29 465901 (2017);
         "P. Giannozzi et al., J. Chem. Phys. 152 154105 (2020);
          URL http://www.quantum-espresso.org", 
     in publications or presentations arising from this work. More details at
     http://www.quantum-espresso.org/quote

     Parallel version (MPI), running on     1 processors

     MPI processes distributed on     1 nodes
     4364 MiB available memory on the printing compute node when the environment starts

     Reading input from quartz/elastic_triclinic/eps_m002_xx.in

     Current dimensions of program PWSCF are:
     Max number of different atomic species (ntypx) = 10
     Max number of k-points (npk) =  40000
     Max angular momentum in pseudopotentials (lmaxx) =  4

     IMPORTANT: XC functional enforced from input :
     Exchange-correlation= LDA
                           (   1   1   0   0   0   0   0)
     Any further DFT definition will be discarded
     Please, verify this is what you really want


     Subspace diagonalization in iterative solution of the eigenvalue problem:
     a serial algorithm will be used


     G-vector sticks info
     --------------------
     sticks:   dense  smooth     PW     G-vecs:    dense   smooth      PW
     Sum        2769    1375    419               134433    47477    7859

     Using Slab Decomposition



     bravais-lattice index     =            0
     lattice parameter (alat)  =       9.2803  a.u.
     unit-cell volume          =     756.7106 (a.u.)^3
     number of atoms/cell      =            9
     number of atomic types    =            2
     number of electrons       =        48.00
     number of Kohn-Sham states=           24
     kinetic-energy cutoff     =      60.0000  Ry
     charge density cutoff     =     480.0000  Ry
     scf convergence threshold =      1.0E-08
     mixing beta               =       0.3000
     number of iterations used =            8  plain     mixing
     Exchange-correlation= LDA
                           (   1   1   0   0   0   0   0)

     celldm(1)=   9.280311  celldm(2)=   0.000000  celldm(3)=   0.000000
     celldm(4)=   0.000000  celldm(5)=   0.000000  celldm(6)=   0.000000

     crystal axes: (cart. coord. in units of alat)
               a(1) = (   0.999751  -0.015585  -0.015945 )  
               a(2) = (  -0.520793   0.846031   0.049862 )  
               a(3) = (  -0.010186   0.059599   1.133301 )  

     reciprocal axes: (cart. coord. in units 2 pi/alat)
               b(1) = (  1.009581  0.622866 -0.023682 )  
               b(2) = (  0.017652  1.196555 -0.062767 )  
               b(3) = (  0.013427 -0.043882  0.884807 )  


     PseudoPot. # 1 for Si read from file:
     ./pseudos/Si.pz-vbc.UPF
     MD5 check sum: 9f25e6ff280f3123e9b3a84715b2e9c9
     Pseudo is Norm-conserving, Zval =  4.0
     Generated by new atomic code, or converted to UPF format
     Using radial grid of  431 points,  2 beta functions with: 
                l(1) =   0
                l(2) =   1

     PseudoPot. # 2 for O  read from file:
     ./pseudos/O.pz-van_ak.UPF
     MD5 check sum: b77f3d8cfe972ebbeca95ec6abb46c7c
     Pseudo is Ultrasoft, Zval =  6.0
     Generated by new atomic code, or converted to UPF format
     Using radial grid of  737 points,  4 beta functions with: 
                l(1) =   0
                l(2) =   0
                l(3) =   1
                l(4) =   1
     Q(r) pseudized with  8 coefficients,  rinner =    0.800   0.800   0.800


     atomic species   valence    mass     pseudopotential
     Si                4.00    28.08550     Si( 1.00)
     O                 6.00    15.99940     O ( 1.00)

     No symmetry found



   Cartesian axes

     site n.     atom                  positions (alat units)
         1        Si     tau(   1) = (   0.4588187  -0.0023437  -0.0044917  )
         2        Si     tau(   2) = (  -0.2568997   0.4767854   0.7604682  )
         3        Si     tau(   3) = (   0.2304716   0.4008371   0.3941478  )
         4        O      tau(   4) = (   0.2428923   0.1055042   0.2306519  )
         5        O      tau(   5) = (   0.5406231   0.4222712   0.4923436  )
         6        O      tau(   6) = (   0.5788576   0.3506906   1.0401477  )
         7        O      tau(   7) = (   0.1701267   0.6782146   0.2192468  )
         8        O      tau(   8) = (   0.0430980   0.3613415   0.6615948  )
         9        O      tau(   9) = (  -0.1328999   0.7668777   0.8747656  )

     number of k points=   504

     Number of k-points >= 100: set verbosity='high' to print them.

     Dense  grid:   134433 G-vectors     FFT dimensions: (  72,  72,  75)

     Smooth grid:    47477 G-vectors     FFT dimensions: (  45,  45,  54)

     Estimated max dynamical RAM per process >       1.26 GB

     Initial potential from superposition of free atoms

     starting charge      47.9985, renormalised to      48.0000
     Starting wfcs are   36 randomized atomic wfcs

     total cpu time spent up to now is       87.5 secs

     Self-consistent Calculation

     iteration #  1     ecut=    60.00 Ry     beta= 0.30
     Davidson diagonalization with overlap
     ethr =  1.00E-02,  avg # of iterations =  2.0

     total cpu time spent up to now is      264.2 secs

     total energy              =    -216.60313822 Ry
     estimated scf accuracy    <       2.35152657 Ry

     iteration #  2     ecut=    60.00 Ry     beta= 0.30
     Davidson diagonalization with overlap
     ethr =  4.90E-03,  avg # of iterations =  2.0

     total cpu time spent up to now is      429.0 secs

     total energy              =    -216.82467282 Ry
     estimated scf accuracy    <       0.26309450 Ry

     iteration #  3     ecut=    60.00 Ry     beta= 0.30
     Davidson diagonalization with overlap
     ethr =  5.48E-04,  avg # of iterations =  3.0

     total cpu time spent up to now is      645.7 secs

     total energy              =    -216.90948316 Ry
     estimated scf accuracy    <       0.09526797 Ry

     iteration #  4     ecut=    60.00 Ry     beta= 0.30
     Davidson diagonalization with overlap
     ethr =  1.98E-04,  avg # of iterations =  3.0

     total cpu time spent up to now is      860.8 secs

     total energy              =    -216.91009142 Ry
     estimated scf accuracy    <       0.16946442 Ry

     iteration #  5     ecut=    60.00 Ry     beta= 0.30
     Davidson diagonalization with overlap
     ethr =  1.98E-04,  avg # of iterations =  2.0

     total cpu time spent up to now is     1035.6 secs

     total energy              =    -216.93786864 Ry
     estimated scf accuracy    <       0.00270899 Ry

     iteration #  6     ecut=    60.00 Ry     beta= 0.30
     Davidson diagonalization with overlap
     ethr =  5.64E-06,  avg # of iterations =  4.9

     total cpu time spent up to now is     1296.7 secs

     total energy              =    -216.94153610 Ry
     estimated scf accuracy    <       0.00218517 Ry

     iteration #  7     ecut=    60.00 Ry     beta= 0.30
     Davidson diagonalization with overlap
     ethr =  4.55E-06,  avg # of iterations =  1.1

     total cpu time spent up to now is     1417.4 secs

     total energy              =    -216.94142368 Ry
     estimated scf accuracy    <       0.00075757 Ry

     iteration #  8     ecut=    60.00 Ry     beta= 0.30
     Davidson diagonalization with overlap
     ethr =  1.58E-06,  avg # of iterations =  1.7

     total cpu time spent up to now is     1543.9 secs

     total energy              =    -216.94135778 Ry
     estimated scf accuracy    <       0.00022971 Ry

     iteration #  9     ecut=    60.00 Ry     beta= 0.30
     Davidson diagonalization with overlap
     ethr =  4.79E-07,  avg # of iterations =  2.1

     total cpu time spent up to now is     1715.7 secs

     total energy              =    -216.94143784 Ry
     estimated scf accuracy    <       0.00000476 Ry

     iteration # 10     ecut=    60.00 Ry     beta= 0.30
     Davidson diagonalization with overlap
     ethr =  9.92E-09,  avg # of iterations =  4.8

     total cpu time spent up to now is     1970.0 secs

     total energy              =    -216.94144067 Ry
     estimated scf accuracy    <       0.00003745 Ry

     iteration # 11     ecut=    60.00 Ry     beta= 0.30
     Davidson diagonalization with overlap
     ethr =  9.92E-09,  avg # of iterations =  1.4

     total cpu time spent up to now is     2094.4 secs

     total energy              =    -216.94142831 Ry
     estimated scf accuracy    <       0.00002514 Ry

     iteration # 12     ecut=    60.00 Ry     beta= 0.30
     Davidson diagonalization with overlap
     ethr =  9.92E-09,  avg # of iterations =  4.0

     total cpu time spent up to now is     2324.7 secs

     total energy              =    -216.94143396 Ry
     estimated scf accuracy    <       0.00000012 Ry

     iteration # 13     ecut=    60.00 Ry     beta= 0.30
     Davidson diagonalization with overlap
     ethr =  2.57E-10,  avg # of iterations =  5.0

     total cpu time spent up to now is     2547.8 secs

     total energy              =    -216.94143410 Ry
     estimated scf accuracy    <       0.00000005 Ry

     iteration # 14     ecut=    60.00 Ry     beta= 0.30
     Davidson diagonalization with overlap
     ethr =  1.06E-10,  avg # of iterations =  2.0

     total cpu time spent up to now is     2691.9 secs

     total energy              =    -216.94143410 Ry
     estimated scf accuracy    <       0.00000006 Ry

     iteration # 15     ecut=    60.00 Ry     beta= 0.30
     Davidson diagonalization with overlap
     ethr =  1.06E-10,  avg # of iterations =  1.0

     total cpu time spent up to now is     2812.0 secs

     total energy              =    -216.94143408 Ry
     estimated scf accuracy    <       0.00000004 Ry

     iteration # 16     ecut=    60.00 Ry     beta= 0.30
     Davidson diagonalization with overlap
     ethr =  9.35E-11,  avg # of iterations =  2.0

     total cpu time spent up to now is     2983.4 secs

     End of self-consistent calculation

     Number of k-points >= 100: set verbosity='high' to print the bands.

     highest occupied level (ev):     2.6620

!    total energy              =    -216.94143410 Ry
     estimated scf accuracy    <          2.3E-10 Ry

     The total energy is the sum of the following terms:
     one-electron contribution =    -102.39869465 Ry
     hartree contribution      =      76.32203638 Ry
     xc contribution           =     -49.52094373 Ry
     ewald contribution        =    -141.34383210 Ry

     convergence has been achieved in  16 iterations

     Writing all to output data dir ./tmp/quartz.save/ :
     XML data file, charge density, pseudopotentials, collected wavefunctions

     init_run     :     85.47s CPU     87.44s WALL (       1 calls)
     electrons    :   2884.94s CPU   2895.93s WALL (       1 calls)

     Called by init_run:
     wfcinit      :     83.94s CPU     85.76s WALL (       1 calls)
     potinit      :      0.29s CPU      0.34s WALL (       1 calls)
     hinit0       :      0.73s CPU      0.78s WALL (       1 calls)

     Called by electrons:
     c_bands      :   2580.73s CPU   2589.75s WALL (      16 calls)
     sum_band     :    301.61s CPU    303.22s WALL (      16 calls)
     v_of_rho     :      0.53s CPU      0.55s WALL (      17 calls)
     newd         :      1.53s CPU      1.91s WALL (      17 calls)
     mix_rho      :      0.42s CPU      0.43s WALL (      16 calls)

     Called by c_bands:
     init_us_2    :     49.82s CPU     50.22s WALL (   16632 calls)
     cegterg      :   2502.65s CPU   2511.17s WALL (    8064 calls)

     Called by *egterg:
     cdiaghg      :     21.83s CPU     21.91s WALL (   29193 calls)
     h_psi        :   2219.39s CPU   2228.60s WALL (   29697 calls)
     s_psi        :     64.65s CPU     64.92s WALL (   29697 calls)
     g_psi        :     10.47s CPU     10.52s WALL (   21129 calls)

     Called by h_psi:
     h_psi:calbec :     72.80s CPU     73.03s WALL (   29697 calls)
     vloc_psi     :   2071.24s CPU   2078.72s WALL (   29697 calls)
     add_vuspsi   :     64.56s CPU     64.82s WALL (   29697 calls)

     General routines
     calbec       :     94.69s CPU     95.08s WALL (   37761 calls)
     fft          :      1.10s CPU      1.12s WALL (      99 calls)
     ffts         :      0.26s CPU      0.26s WALL (      33 calls)
     fftw         :   1635.88s CPU   1641.98s WALL ( 1423704 calls)
     interpolate  :      0.37s CPU      0.37s WALL (      17 calls)

     Parallel routines

     PWSCF        :  49m31.31s CPU  49m47.77s WALL


   This run was terminated on:   3:29:37  17Nov2025            

=------------------------------------------------------------------------------=
   JOB DONE.
=------------------------------------------------------------------------------=
