
     Program PWSCF v.7.4.1 starts on 17Nov2025 at  1:51:35 

     This program is part of the open-source Quantum ESPRESSO suite
     for quantum simulation of materials; please cite
         "P. Giannozzi et al., J. Phys.:Condens. Matter 21 395502 (2009);
         "P. Giannozzi et al., J. Phys.:Condens. Matter 29 465901 (2017);
         "P. Giannozzi et al., J. Chem. Phys. 152 154105 (2020);
          URL http://www.quantum-espresso.org", 
     in publications or presentations arising from this work. More details at
     http://www.quantum-espresso.org/quote

     Parallel version (MPI), running on     1 processors

     MPI processes distributed on     1 nodes
     3951 MiB available memory on the printing compute node when the environment starts

     Reading input from quartz/elastic_triclinic/eps_p002_xx.in

     Current dimensions of program PWSCF are:
     Max number of different atomic species (ntypx) = 10
     Max number of k-points (npk) =  40000
     Max angular momentum in pseudopotentials (lmaxx) =  4

     IMPORTANT: XC functional enforced from input :
     Exchange-correlation= LDA
                           (   1   1   0   0   0   0   0)
     Any further DFT definition will be discarded
     Please, verify this is what you really want


     Subspace diagonalization in iterative solution of the eigenvalue problem:
     a serial algorithm will be used


     G-vector sticks info
     --------------------
     sticks:   dense  smooth     PW     G-vecs:    dense   smooth      PW
     Sum        2777    1375    421               134977    47633    7893

     Using Slab Decomposition



     bravais-lattice index     =            0
     lattice parameter (alat)  =       9.3175  a.u.
     unit-cell volume          =     759.7436 (a.u.)^3
     number of atoms/cell      =            9
     number of atomic types    =            2
     number of electrons       =        48.00
     number of Kohn-Sham states=           24
     kinetic-energy cutoff     =      60.0000  Ry
     charge density cutoff     =     480.0000  Ry
     scf convergence threshold =      1.0E-08
     mixing beta               =       0.3000
     number of iterations used =            8  plain     mixing
     Exchange-correlation= LDA
                           (   1   1   0   0   0   0   0)

     celldm(1)=   9.317508  celldm(2)=   0.000000  celldm(3)=   0.000000
     celldm(4)=   0.000000  celldm(5)=   0.000000  celldm(6)=   0.000000

     crystal axes: (cart. coord. in units of alat)
               a(1) = (   0.999751  -0.015585  -0.015945 )  
               a(2) = (  -0.518714   0.842654   0.049663 )  
               a(3) = (  -0.010145   0.059361   1.128777 )  

     reciprocal axes: (cart. coord. in units 2 pi/alat)
               b(1) = (  1.009581  0.622866 -0.023682 )  
               b(2) = (  0.017723  1.201351 -0.063018 )  
               b(3) = (  0.013481 -0.044058  0.888353 )  


     PseudoPot. # 1 for Si read from file:
     ./pseudos/Si.pz-vbc.UPF
     MD5 check sum: 9f25e6ff280f3123e9b3a84715b2e9c9
     Pseudo is Norm-conserving, Zval =  4.0
     Generated by new atomic code, or converted to UPF format
     Using radial grid of  431 points,  2 beta functions with: 
                l(1) =   0
                l(2) =   1

     PseudoPot. # 2 for O  read from file:
     ./pseudos/O.pz-van_ak.UPF
     MD5 check sum: b77f3d8cfe972ebbeca95ec6abb46c7c
     Pseudo is Ultrasoft, Zval =  6.0
     Generated by new atomic code, or converted to UPF format
     Using radial grid of  737 points,  4 beta functions with: 
                l(1) =   0
                l(2) =   0
                l(3) =   1
                l(4) =   1
     Q(r) pseudized with  8 coefficients,  rinner =    0.800   0.800   0.800


     atomic species   valence    mass     pseudopotential
     Si                4.00    28.08550     Si( 1.00)
     O                 6.00    15.99940     O ( 1.00)

     No symmetry found



   Cartesian axes

     site n.     atom                  positions (alat units)
         1        Si     tau(   1) = (   0.4588304  -0.0023631  -0.0045032  )
         2        Si     tau(   2) = (  -0.2557959   0.4748808   0.7574310  )
         3        Si     tau(   3) = (   0.2314394   0.3992074   0.3925441  )
         4        O      tau(   4) = (   0.2431418   0.1050640   0.2297116  )
         5        O      tau(   5) = (   0.5416465   0.4205358   0.4903274  )
         6        O      tau(   6) = (   0.5796527   0.3492422   1.0359456  )
         7        O      tau(   7) = (   0.1717984   0.6754703   0.2183340  )
         8        O      tau(   8) = (   0.0439353   0.3598832   0.6589375  )
         9        O      tau(   9) = (  -0.1310810   0.7637961   0.8712528  )

     number of k points=   504

     Number of k-points >= 100: set verbosity='high' to print them.

     Dense  grid:   134977 G-vectors     FFT dimensions: (  72,  72,  75)

     Smooth grid:    47633 G-vectors     FFT dimensions: (  45,  45,  54)

     Estimated max dynamical RAM per process >       1.27 GB

     Initial potential from superposition of free atoms

     starting charge      47.9985, renormalised to      48.0000
     Starting wfcs are   36 randomized atomic wfcs

     total cpu time spent up to now is       81.9 secs

     Self-consistent Calculation

     iteration #  1     ecut=    60.00 Ry     beta= 0.30
     Davidson diagonalization with overlap
     ethr =  1.00E-02,  avg # of iterations =  2.0

     total cpu time spent up to now is      256.2 secs

     total energy              =    -216.60275868 Ry
     estimated scf accuracy    <       2.34850313 Ry

     iteration #  2     ecut=    60.00 Ry     beta= 0.30
     Davidson diagonalization with overlap
     ethr =  4.89E-03,  avg # of iterations =  2.0

     total cpu time spent up to now is      414.7 secs

     total energy              =    -216.82506471 Ry
     estimated scf accuracy    <       0.26192253 Ry

     iteration #  3     ecut=    60.00 Ry     beta= 0.30
     Davidson diagonalization with overlap
     ethr =  5.46E-04,  avg # of iterations =  3.0

     total cpu time spent up to now is      626.9 secs

     total energy              =    -216.90946867 Ry
     estimated scf accuracy    <       0.09559717 Ry

     iteration #  4     ecut=    60.00 Ry     beta= 0.30
     Davidson diagonalization with overlap
     ethr =  1.99E-04,  avg # of iterations =  3.0

     total cpu time spent up to now is      838.2 secs

     total energy              =    -216.91038744 Ry
     estimated scf accuracy    <       0.16849295 Ry

     iteration #  5     ecut=    60.00 Ry     beta= 0.30
     Davidson diagonalization with overlap
     ethr =  1.99E-04,  avg # of iterations =  2.0

     total cpu time spent up to now is     1010.1 secs

     total energy              =    -216.93812694 Ry
     estimated scf accuracy    <       0.00262249 Ry

     iteration #  6     ecut=    60.00 Ry     beta= 0.30
     Davidson diagonalization with overlap
     ethr =  5.46E-06,  avg # of iterations =  5.1

     total cpu time spent up to now is     1266.0 secs

     total energy              =    -216.94176218 Ry
     estimated scf accuracy    <       0.00226704 Ry

     iteration #  7     ecut=    60.00 Ry     beta= 0.30
     Davidson diagonalization with overlap
     ethr =  4.72E-06,  avg # of iterations =  1.0

     total cpu time spent up to now is     1384.2 secs

     total energy              =    -216.94163031 Ry
     estimated scf accuracy    <       0.00079573 Ry

     iteration #  8     ecut=    60.00 Ry     beta= 0.30
     Davidson diagonalization with overlap
     ethr =  1.66E-06,  avg # of iterations =  1.8

     total cpu time spent up to now is     1510.0 secs

     total energy              =    -216.94158058 Ry
     estimated scf accuracy    <       0.00021480 Ry

     iteration #  9     ecut=    60.00 Ry     beta= 0.30
     Davidson diagonalization with overlap
     ethr =  4.48E-07,  avg # of iterations =  2.0

     total cpu time spent up to now is     1678.5 secs

     total energy              =    -216.94165892 Ry
     estimated scf accuracy    <       0.00000510 Ry

     iteration # 10     ecut=    60.00 Ry     beta= 0.30
     Davidson diagonalization with overlap
     ethr =  1.06E-08,  avg # of iterations =  4.5

     total cpu time spent up to now is     1919.1 secs

     total energy              =    -216.94166133 Ry
     estimated scf accuracy    <       0.00003383 Ry

     iteration # 11     ecut=    60.00 Ry     beta= 0.30
     Davidson diagonalization with overlap
     ethr =  1.06E-08,  avg # of iterations =  1.1

     total cpu time spent up to now is     2037.9 secs

     total energy              =    -216.94164867 Ry
     estimated scf accuracy    <       0.00002372 Ry

     iteration # 12     ecut=    60.00 Ry     beta= 0.30
     Davidson diagonalization with overlap
     ethr =  1.06E-08,  avg # of iterations =  4.0

     total cpu time spent up to now is     2268.1 secs

     total energy              =    -216.94165495 Ry
     estimated scf accuracy    <       0.00000049 Ry

     iteration # 13     ecut=    60.00 Ry     beta= 0.30
     Davidson diagonalization with overlap
     ethr =  1.02E-09,  avg # of iterations =  2.0

     total cpu time spent up to now is     2429.5 secs

     total energy              =    -216.94165507 Ry
     estimated scf accuracy    <       0.00000006 Ry

     iteration # 14     ecut=    60.00 Ry     beta= 0.30
     Davidson diagonalization with overlap
     ethr =  1.23E-10,  avg # of iterations =  3.0

     total cpu time spent up to now is     2596.7 secs

     total energy              =    -216.94165509 Ry
     estimated scf accuracy    <       0.00000004 Ry

     iteration # 15     ecut=    60.00 Ry     beta= 0.30
     Davidson diagonalization with overlap
     ethr =  8.14E-11,  avg # of iterations =  1.0

     total cpu time spent up to now is     2716.5 secs

     total energy              =    -216.94165507 Ry
     estimated scf accuracy    <       0.00000004 Ry

     iteration # 16     ecut=    60.00 Ry     beta= 0.30
     Davidson diagonalization with overlap
     ethr =  8.14E-11,  avg # of iterations =  2.9

     total cpu time spent up to now is     2890.4 secs

     End of self-consistent calculation

     Number of k-points >= 100: set verbosity='high' to print the bands.

     highest occupied level (ev):     2.6245

!    total energy              =    -216.94165508 Ry
     estimated scf accuracy    <          1.0E-09 Ry

     The total energy is the sum of the following terms:
     one-electron contribution =    -102.72252764 Ry
     hartree contribution      =      76.42032856 Ry
     xc contribution           =     -49.49864628 Ry
     ewald contribution        =    -141.14080972 Ry

     convergence has been achieved in  16 iterations

     Writing all to output data dir ./tmp/quartz.save/ :
     XML data file, charge density, pseudopotentials, collected wavefunctions

     init_run     :     79.34s CPU     81.83s WALL (       1 calls)
     electrons    :   2797.83s CPU   2808.48s WALL (       1 calls)

     Called by init_run:
     wfcinit      :     77.84s CPU     80.16s WALL (       1 calls)
     potinit      :      0.28s CPU      0.31s WALL (       1 calls)
     hinit0       :      0.72s CPU      0.74s WALL (       1 calls)

     Called by electrons:
     c_bands      :   2497.01s CPU   2505.49s WALL (      16 calls)
     sum_band     :    298.22s CPU    300.03s WALL (      16 calls)
     v_of_rho     :      0.52s CPU      0.53s WALL (      17 calls)
     newd         :      1.52s CPU      1.98s WALL (      17 calls)
     mix_rho      :      0.43s CPU      0.43s WALL (      16 calls)

     Called by c_bands:
     init_us_2    :     49.72s CPU     50.08s WALL (   16632 calls)
     cegterg      :   2418.78s CPU   2426.84s WALL (    8064 calls)

     Called by *egterg:
     cdiaghg      :     21.23s CPU     21.28s WALL (   28408 calls)
     h_psi        :   2142.52s CPU   2151.95s WALL (   28912 calls)
     s_psi        :     63.56s CPU     63.81s WALL (   28912 calls)
     g_psi        :     10.25s CPU     10.30s WALL (   20344 calls)

     Called by h_psi:
     h_psi:calbec :     71.09s CPU     71.38s WALL (   28912 calls)
     vloc_psi     :   1998.88s CPU   2005.92s WALL (   28912 calls)
     add_vuspsi   :     63.42s CPU     63.69s WALL (   28912 calls)

     General routines
     calbec       :     92.77s CPU     93.21s WALL (   36976 calls)
     fft          :      1.11s CPU      1.11s WALL (      99 calls)
     ffts         :      0.25s CPU      0.26s WALL (      33 calls)
     fftw         :   1587.54s CPU   1593.11s WALL ( 1404766 calls)
     interpolate  :      0.35s CPU      0.37s WALL (      17 calls)

     Parallel routines

     PWSCF        :  47m58.07s CPU  48m14.30s WALL


   This run was terminated on:   2:39:49  17Nov2025            

=------------------------------------------------------------------------------=
   JOB DONE.
=------------------------------------------------------------------------------=
