
     Program PWSCF v.7.4.1 starts on 18Nov2025 at  2:56:51 

     This program is part of the open-source Quantum ESPRESSO suite
     for quantum simulation of materials; please cite
         "P. Giannozzi et al., J. Phys.:Condens. Matter 21 395502 (2009);
         "P. Giannozzi et al., J. Phys.:Condens. Matter 29 465901 (2017);
         "P. Giannozzi et al., J. Chem. Phys. 152 154105 (2020);
          URL http://www.quantum-espresso.org", 
     in publications or presentations arising from this work. More details at
     http://www.quantum-espresso.org/quote

     Parallel version (MPI), running on     1 processors

     MPI processes distributed on     1 nodes
     5048 MiB available memory on the printing compute node when the environment starts

     Reading input from pzt/scf/pzt_scf.in

     Current dimensions of program PWSCF are:
     Max number of different atomic species (ntypx) = 10
     Max number of k-points (npk) =  40000
     Max angular momentum in pseudopotentials (lmaxx) =  4

     IMPORTANT: XC functional enforced from input :
     Exchange-correlation= LDA
                           (   1   1   0   0   0   0   0)
     Any further DFT definition will be discarded
     Please, verify this is what you really want

     Message from routine setup:
     using ibrav=0 with symmetry is DISCOURAGED, use correct ibrav instead

     Subspace diagonalization in iterative solution of the eigenvalue problem:
     a serial algorithm will be used


     G-vector sticks info
     --------------------
     sticks:   dense  smooth     PW     G-vecs:    dense   smooth      PW
     Sum        2025    1005    293                72333    25625    4177

     Using Slab Decomposition



     bravais-lattice index     =            0
     lattice parameter (alat)  =       7.2956  a.u.
     unit-cell volume          =     407.8422 (a.u.)^3
     number of atoms/cell      =            5
     number of atomic types    =            3
     number of electrons       =        44.00
     number of Kohn-Sham states=           22
     kinetic-energy cutoff     =      60.0000  Ry
     charge density cutoff     =     480.0000  Ry
     scf convergence threshold =      1.0E-08
     mixing beta               =       0.3000
     number of iterations used =            8  plain     mixing
     Exchange-correlation= LDA
                           (   1   1   0   0   0   0   0)

     celldm(1)=   7.295621  celldm(2)=   0.000000  celldm(3)=   0.000000
     celldm(4)=   0.000000  celldm(5)=   0.000000  celldm(6)=   0.000000

     crystal axes: (cart. coord. in units of alat)
               a(1) = (   1.000000   0.000000   0.000000 )  
               a(2) = (   0.000000   1.000000   0.000000 )  
               a(3) = (   0.000000   0.000000   1.050281 )  

     reciprocal axes: (cart. coord. in units 2 pi/alat)
               b(1) = (  1.000000  0.000000  0.000000 )  
               b(2) = (  0.000000  1.000000  0.000000 )  
               b(3) = (  0.000000  0.000000  0.952127 )  


     PseudoPot. # 1 for Pb read from file:
     ./pseudos/Pb.pz-d-van.UPF
     MD5 check sum: 7d60cbfc971891b50292ee40cb29912a
     Pseudo is Ultrasoft, Zval = 14.0
     Generated by new atomic code, or converted to UPF format
     Using radial grid of  899 points,  6 beta functions with: 
                l(1) =   0
                l(2) =   0
                l(3) =   1
                l(4) =   1
                l(5) =   2
                l(6) =   2
     Q(r) pseudized with  8 coefficients,  rinner =    1.000   1.000   1.000
                                                       1.000   1.000

     PseudoPot. # 2 for Ti read from file:
     ./pseudos/Ti.pz-sp-van_ak.UPF
     MD5 check sum: 93c5ef60b250b0ab110b997ad8a4342c
     Pseudo is Ultrasoft, Zval = 12.0
     Generated by new atomic code, or converted to UPF format
     Using radial grid of  851 points,  6 beta functions with: 
                l(1) =   0
                l(2) =   0
                l(3) =   1
                l(4) =   1
                l(5) =   2
                l(6) =   2
     Q(r) pseudized with  8 coefficients,  rinner =    1.000   1.000   1.000
                                                       1.000   1.000

     PseudoPot. # 3 for O  read from file:
     ./pseudos/O.pz-van_ak.UPF
     MD5 check sum: b77f3d8cfe972ebbeca95ec6abb46c7c
     Pseudo is Ultrasoft, Zval =  6.0
     Generated by new atomic code, or converted to UPF format
     Using radial grid of  737 points,  4 beta functions with: 
                l(1) =   0
                l(2) =   0
                l(3) =   1
                l(4) =   1
     Q(r) pseudized with  8 coefficients,  rinner =    0.800   0.800   0.800


     atomic species   valence    mass     pseudopotential
     Pb               14.00   207.20000     Pb( 1.00)
     Ti               12.00    47.86700     Ti( 1.00)
     O                 6.00    15.99940     O ( 1.00)

      8 Sym. Ops. (no inversion) found



   Cartesian axes

     site n.     atom                  positions (alat units)
         1        Pb     tau(   1) = (   0.0000000   0.0000000  -0.0005884  )
         2        Ti     tau(   2) = (   0.5000000   0.5000000   0.5645672  )
         3        O      tau(   3) = (   0.5000000   0.5000000   0.1057338  )
         4        O      tau(   4) = (   0.5000000   0.0000000   0.6314019  )
         5        O      tau(   5) = (   0.0000000   0.5000000   0.6314019  )

     number of k points=    75
                       cart. coord. in units 2pi/alat
        k(    1) = (   0.0000000   0.0000000   0.0000000), wk =   0.0039062
        k(    2) = (   0.0000000   0.0000000   0.1190158), wk =   0.0078125
        k(    3) = (   0.0000000   0.0000000   0.2380316), wk =   0.0078125
        k(    4) = (   0.0000000   0.0000000   0.3570474), wk =   0.0078125
        k(    5) = (   0.0000000   0.0000000  -0.4760633), wk =   0.0039062
        k(    6) = (   0.0000000   0.1250000   0.0000000), wk =   0.0156250
        k(    7) = (   0.0000000   0.1250000   0.1190158), wk =   0.0312500
        k(    8) = (   0.0000000   0.1250000   0.2380316), wk =   0.0312500
        k(    9) = (   0.0000000   0.1250000   0.3570474), wk =   0.0312500
        k(   10) = (   0.0000000   0.1250000  -0.4760633), wk =   0.0156250
        k(   11) = (   0.0000000   0.2500000   0.0000000), wk =   0.0156250
        k(   12) = (   0.0000000   0.2500000   0.1190158), wk =   0.0312500
        k(   13) = (   0.0000000   0.2500000   0.2380316), wk =   0.0312500
        k(   14) = (   0.0000000   0.2500000   0.3570474), wk =   0.0312500
        k(   15) = (   0.0000000   0.2500000  -0.4760633), wk =   0.0156250
        k(   16) = (   0.0000000   0.3750000   0.0000000), wk =   0.0156250
        k(   17) = (   0.0000000   0.3750000   0.1190158), wk =   0.0312500
        k(   18) = (   0.0000000   0.3750000   0.2380316), wk =   0.0312500
        k(   19) = (   0.0000000   0.3750000   0.3570474), wk =   0.0312500
        k(   20) = (   0.0000000   0.3750000  -0.4760633), wk =   0.0156250
        k(   21) = (   0.0000000  -0.5000000   0.0000000), wk =   0.0078125
        k(   22) = (   0.0000000  -0.5000000   0.1190158), wk =   0.0156250
        k(   23) = (   0.0000000  -0.5000000   0.2380316), wk =   0.0156250
        k(   24) = (   0.0000000  -0.5000000   0.3570474), wk =   0.0156250
        k(   25) = (   0.0000000  -0.5000000  -0.4760633), wk =   0.0078125
        k(   26) = (   0.1250000   0.1250000   0.0000000), wk =   0.0156250
        k(   27) = (   0.1250000   0.1250000   0.1190158), wk =   0.0312500
        k(   28) = (   0.1250000   0.1250000   0.2380316), wk =   0.0312500
        k(   29) = (   0.1250000   0.1250000   0.3570474), wk =   0.0312500
        k(   30) = (   0.1250000   0.1250000  -0.4760633), wk =   0.0156250
        k(   31) = (   0.1250000   0.2500000   0.0000000), wk =   0.0312500
        k(   32) = (   0.1250000   0.2500000   0.1190158), wk =   0.0625000
        k(   33) = (   0.1250000   0.2500000   0.2380316), wk =   0.0625000
        k(   34) = (   0.1250000   0.2500000   0.3570474), wk =   0.0625000
        k(   35) = (   0.1250000   0.2500000  -0.4760633), wk =   0.0312500
        k(   36) = (   0.1250000   0.3750000   0.0000000), wk =   0.0312500
        k(   37) = (   0.1250000   0.3750000   0.1190158), wk =   0.0625000
        k(   38) = (   0.1250000   0.3750000   0.2380316), wk =   0.0625000
        k(   39) = (   0.1250000   0.3750000   0.3570474), wk =   0.0625000
        k(   40) = (   0.1250000   0.3750000  -0.4760633), wk =   0.0312500
        k(   41) = (   0.1250000  -0.5000000   0.0000000), wk =   0.0156250
        k(   42) = (   0.1250000  -0.5000000   0.1190158), wk =   0.0312500
        k(   43) = (   0.1250000  -0.5000000   0.2380316), wk =   0.0312500
        k(   44) = (   0.1250000  -0.5000000   0.3570474), wk =   0.0312500
        k(   45) = (   0.1250000  -0.5000000  -0.4760633), wk =   0.0156250
        k(   46) = (   0.2500000   0.2500000   0.0000000), wk =   0.0156250
        k(   47) = (   0.2500000   0.2500000   0.1190158), wk =   0.0312500
        k(   48) = (   0.2500000   0.2500000   0.2380316), wk =   0.0312500
        k(   49) = (   0.2500000   0.2500000   0.3570474), wk =   0.0312500
        k(   50) = (   0.2500000   0.2500000  -0.4760633), wk =   0.0156250
        k(   51) = (   0.2500000   0.3750000   0.0000000), wk =   0.0312500
        k(   52) = (   0.2500000   0.3750000   0.1190158), wk =   0.0625000
        k(   53) = (   0.2500000   0.3750000   0.2380316), wk =   0.0625000
        k(   54) = (   0.2500000   0.3750000   0.3570474), wk =   0.0625000
        k(   55) = (   0.2500000   0.3750000  -0.4760633), wk =   0.0312500
        k(   56) = (   0.2500000  -0.5000000   0.0000000), wk =   0.0156250
        k(   57) = (   0.2500000  -0.5000000   0.1190158), wk =   0.0312500
        k(   58) = (   0.2500000  -0.5000000   0.2380316), wk =   0.0312500
        k(   59) = (   0.2500000  -0.5000000   0.3570474), wk =   0.0312500
        k(   60) = (   0.2500000  -0.5000000  -0.4760633), wk =   0.0156250
        k(   61) = (   0.3750000   0.3750000   0.0000000), wk =   0.0156250
        k(   62) = (   0.3750000   0.3750000   0.1190158), wk =   0.0312500
        k(   63) = (   0.3750000   0.3750000   0.2380316), wk =   0.0312500
        k(   64) = (   0.3750000   0.3750000   0.3570474), wk =   0.0312500
        k(   65) = (   0.3750000   0.3750000  -0.4760633), wk =   0.0156250
        k(   66) = (   0.3750000  -0.5000000   0.0000000), wk =   0.0156250
        k(   67) = (   0.3750000  -0.5000000   0.1190158), wk =   0.0312500
        k(   68) = (   0.3750000  -0.5000000   0.2380316), wk =   0.0312500
        k(   69) = (   0.3750000  -0.5000000   0.3570474), wk =   0.0312500
        k(   70) = (   0.3750000  -0.5000000  -0.4760633), wk =   0.0156250
        k(   71) = (  -0.5000000  -0.5000000   0.0000000), wk =   0.0039062
        k(   72) = (  -0.5000000  -0.5000000   0.1190158), wk =   0.0078125
        k(   73) = (  -0.5000000  -0.5000000   0.2380316), wk =   0.0078125
        k(   74) = (  -0.5000000  -0.5000000   0.3570474), wk =   0.0078125
        k(   75) = (  -0.5000000  -0.5000000  -0.4760633), wk =   0.0039062

     Dense  grid:    72333 G-vectors     FFT dimensions: (  54,  54,  54)

     Smooth grid:    25625 G-vectors     FFT dimensions: (  36,  36,  40)

     Estimated max dynamical RAM per process >     343.42 MB

     Initial potential from superposition of free atoms

     starting charge      42.9982, renormalised to      44.0000
     Starting wfcs are   31 randomized atomic wfcs

     total cpu time spent up to now is        4.3 secs

     Self-consistent Calculation

     iteration #  1     ecut=    60.00 Ry     beta= 0.30
     Davidson diagonalization with overlap
     ethr =  1.00E-02,  avg # of iterations =  2.0

     total cpu time spent up to now is        9.2 secs

     total energy              =    -333.59593969 Ry
     estimated scf accuracy    <       1.00836833 Ry

     iteration #  2     ecut=    60.00 Ry     beta= 0.30
     Davidson diagonalization with overlap
     ethr =  2.29E-03,  avg # of iterations =  3.2

     total cpu time spent up to now is       14.8 secs

     total energy              =    -333.74116330 Ry
     estimated scf accuracy    <       0.10449898 Ry

     iteration #  3     ecut=    60.00 Ry     beta= 0.30
     Davidson diagonalization with overlap
     ethr =  2.37E-04,  avg # of iterations =  4.5

     total cpu time spent up to now is       21.6 secs

     total energy              =    -333.74098426 Ry
     estimated scf accuracy    <       0.10348934 Ry

     iteration #  4     ecut=    60.00 Ry     beta= 0.30
     Davidson diagonalization with overlap
     ethr =  2.35E-04,  avg # of iterations =  4.5

     total cpu time spent up to now is       28.1 secs

     total energy              =    -333.77579818 Ry
     estimated scf accuracy    <       0.03473605 Ry

     iteration #  5     ecut=    60.00 Ry     beta= 0.30
     Davidson diagonalization with overlap
     ethr =  7.89E-05,  avg # of iterations =  3.6

     total cpu time spent up to now is       33.7 secs

     total energy              =    -333.76531696 Ry
     estimated scf accuracy    <       0.06938923 Ry

     iteration #  6     ecut=    60.00 Ry     beta= 0.30
     Davidson diagonalization with overlap
     ethr =  7.89E-05,  avg # of iterations =  1.5

     total cpu time spent up to now is       38.4 secs

     total energy              =    -333.75300011 Ry
     estimated scf accuracy    <       0.03681667 Ry

     iteration #  7     ecut=    60.00 Ry     beta= 0.30
     Davidson diagonalization with overlap
     ethr =  7.89E-05,  avg # of iterations =  4.7

     total cpu time spent up to now is       44.6 secs

     total energy              =    -333.76302317 Ry
     estimated scf accuracy    <       0.00197998 Ry

     iteration #  8     ecut=    60.00 Ry     beta= 0.30
     Davidson diagonalization with overlap
     ethr =  4.50E-06,  avg # of iterations =  3.8

     total cpu time spent up to now is       50.4 secs

     total energy              =    -333.76307665 Ry
     estimated scf accuracy    <       0.00102103 Ry

     iteration #  9     ecut=    60.00 Ry     beta= 0.30
     Davidson diagonalization with overlap
     ethr =  2.32E-06,  avg # of iterations =  4.4

     total cpu time spent up to now is       56.2 secs

     total energy              =    -333.76329868 Ry
     estimated scf accuracy    <       0.00001825 Ry

     iteration # 10     ecut=    60.00 Ry     beta= 0.30
     Davidson diagonalization with overlap
     ethr =  4.15E-08,  avg # of iterations =  5.9

     total cpu time spent up to now is       64.0 secs

     total energy              =    -333.76331755 Ry
     estimated scf accuracy    <       0.00000383 Ry

     iteration # 11     ecut=    60.00 Ry     beta= 0.30
     Davidson diagonalization with overlap
     ethr =  8.70E-09,  avg # of iterations =  4.6

     total cpu time spent up to now is       70.6 secs

     total energy              =    -333.76331590 Ry
     estimated scf accuracy    <       0.00000733 Ry

     iteration # 12     ecut=    60.00 Ry     beta= 0.30
     Davidson diagonalization with overlap
     ethr =  8.70E-09,  avg # of iterations =  4.4

     total cpu time spent up to now is       77.1 secs

     total energy              =    -333.76331714 Ry
     estimated scf accuracy    <       0.00000009 Ry

     iteration # 13     ecut=    60.00 Ry     beta= 0.30
     Davidson diagonalization with overlap
     ethr =  2.11E-10,  avg # of iterations =  6.9

     total cpu time spent up to now is       86.4 secs

     total energy              =    -333.76331704 Ry
     estimated scf accuracy    <       0.00000127 Ry

     iteration # 14     ecut=    60.00 Ry     beta= 0.30
     Davidson diagonalization with overlap
     ethr =  2.11E-10,  avg # of iterations =  6.0

     total cpu time spent up to now is       94.8 secs

     total energy              =    -333.76331716 Ry
     estimated scf accuracy    <       0.00000004 Ry

     iteration # 15     ecut=    60.00 Ry     beta= 0.30
     Davidson diagonalization with overlap
     ethr =  8.66E-11,  avg # of iterations =  5.6

     total cpu time spent up to now is      102.3 secs

     total energy              =    -333.76331717 Ry
     estimated scf accuracy    <       0.00000004 Ry

     iteration # 16     ecut=    60.00 Ry     beta= 0.30
     Davidson diagonalization with overlap
     ethr =  8.66E-11,  avg # of iterations =  2.3

     total cpu time spent up to now is      107.3 secs

     total energy              =    -333.76331717 Ry
     estimated scf accuracy    <       0.00000001 Ry

     iteration # 17     ecut=    60.00 Ry     beta= 0.30
     Davidson diagonalization with overlap
     ethr =  3.04E-11,  avg # of iterations =  4.4

     total cpu time spent up to now is      113.7 secs

     End of self-consistent calculation

          k = 0.0000 0.0000 0.0000 (  3155 PWs)   bands (ev):

   -45.2053 -21.9098 -21.8043 -21.8043  -7.2150  -6.0866  -5.8561  -4.5085
    -4.5085  -4.4744  -4.3576  -4.2558   4.7177   6.7130   6.7130   7.0881
     8.6546   8.6546   8.9373   9.1944   9.4153   9.4153

          k = 0.0000 0.0000 0.1190 (  3179 PWs)   bands (ev):

   -45.2052 -21.9169 -21.8041 -21.8041  -7.1562  -6.0689  -5.8350  -4.5136
    -4.5136  -4.4740  -4.3542  -4.2778   4.4114   6.7381   6.7381   7.3291
     8.5571   8.5571   8.9123   9.0412   9.4526   9.4526

          k = 0.0000 0.0000 0.2380 (  3187 PWs)   bands (ev):

   -45.2049 -21.9338 -21.8035 -21.8035  -7.0089  -6.0243  -5.7855  -4.5260
    -4.5260  -4.4729  -4.3465  -4.3330   3.8756   6.7953   6.7953   7.2655
     8.3643   8.3643   8.8534   9.2891   9.5195   9.5195

          k = 0.0000 0.0000 0.3570 (  3203 PWs)   bands (ev):

   -45.2046 -21.9507 -21.8029 -21.8029  -6.8529  -5.9766  -5.7391  -4.5383
    -4.5383  -4.4719  -4.3912  -4.3395   3.4767   6.7894   6.8460   6.8460
     8.2118   8.2118   8.7964   9.5721   9.5721  10.0903

          k = 0.0000 0.0000-0.4761 (  3202 PWs)   bands (ev):

   -45.2044 -21.9576 -21.8026 -21.8026  -6.7850  -5.9559  -5.7213  -4.5434
    -4.5434  -4.4714  -4.4164  -4.3369   3.3355   6.5679   6.8646   6.8646
     8.1580   8.1580   8.7734   9.5920   9.5920  10.5691

          k = 0.0000 0.1250 0.0000 (  3168 PWs)   bands (ev):

   -45.2051 -21.9093 -21.8167 -21.8039  -7.1312  -6.0649  -5.8379  -4.5238
    -4.5076  -4.4828  -4.3586  -4.2479   4.4293   6.7198   6.7746   7.1785
     8.5571   8.6628   8.9463   9.1374   9.1868   9.4598

          k = 0.0000 0.1250 0.1190 (  3179 PWs)   bands (ev):

   -45.2049 -21.9164 -21.8164 -21.8036  -7.0744  -6.0500  -5.8163  -4.5262
    -4.5128  -4.4825  -4.3558  -4.2638   4.1955   6.6802   6.8016   7.3797
     8.4057   8.5576   8.9577   8.9968   9.2332   9.5069

          k = 0.0000 0.1250 0.2380 (  3195 PWs)   bands (ev):

   -45.2046 -21.9333 -21.8157 -21.8030  -6.9338  -6.0125  -5.7645  -4.5310
    -4.5254  -4.4817  -4.3516  -4.3019   3.7444   6.6264   6.8628   7.3825
     8.1103   8.3615   8.9018   9.0376   9.3076   9.7563

          k = 0.0000 0.1250 0.3570 (  3194 PWs)   bands (ev):

   -45.2043 -21.9500 -21.8151 -21.8024  -6.7873  -5.9724  -5.7131  -4.5380
    -4.5353  -4.4809  -4.3563  -4.3343   3.3865   6.4713   6.9165   7.0843
     7.9719   8.2121   9.0182   9.0498   9.3623  10.2419

          k = 0.0000 0.1250-0.4761 (  3182 PWs)   bands (ev):

   -45.2042 -21.9569 -21.8148 -21.8021  -6.7248  -5.9547  -5.6922  -4.5431
    -4.5373  -4.4805  -4.3655  -4.3409   3.2566   6.3406   6.9359   6.9948
     7.9328   8.1606   9.0224   9.0910   9.3826  10.5338

          k = 0.0000 0.2500 0.0000 (  3184 PWs)   bands (ev):

   -45.2044 -21.9082 -21.8463 -21.8027  -6.9193  -6.0115  -5.7975  -4.5531
    -4.5058  -4.5026  -4.3594  -4.2401   3.9205   6.6916   6.9431   6.9441
     8.5236   8.5765   8.8310   8.8527   9.1709   9.6407

          k = 0.0000 0.2500 0.1190 (  3196 PWs)   bands (ev):

   -45.2042 -21.9151 -21.8460 -21.8024  -6.8705  -6.0016  -5.7737  -4.5483
    -4.5110  -4.5027  -4.3555  -4.2439   3.7745   6.5804   6.9754   7.0780
     8.3124   8.4720   8.7845   8.8799   9.0424   9.8089

          k = 0.0000 0.2500 0.2380 (  3191 PWs)   bands (ev):

   -45.2039 -21.9318 -21.8452 -21.8018  -6.7555  -5.9739  -5.7117  -4.5341
    -4.5241  -4.5026  -4.3571  -4.2457   3.4584   6.4233   7.0475   7.1280
     7.9760   8.2967   8.3095   8.9428   9.2911  10.0298

          k = 0.0000 0.2500 0.3570 (  3190 PWs)   bands (ev):

   -45.2036 -21.9484 -21.8444 -21.8011  -6.6468  -5.9374  -5.6432  -4.5372
    -4.5181  -4.5025  -4.3701  -4.2403   3.1815   6.2046   6.9877   7.1074
     7.7220   8.1737   8.1847   8.9859   9.4722  10.1912

          k = 0.0000 0.2500-0.4761 (  3182 PWs)   bands (ev):

   -45.2035 -21.9552 -21.8441 -21.8009  -6.6047  -5.9186  -5.6127  -4.5426
    -4.5120  -4.5024  -4.3763  -4.2377   3.0761   6.0736   6.9217   7.1270
     7.6355   8.1348   8.1978   9.0022   9.5228  10.2537

          k = 0.0000 0.3750 0.0000 (  3212 PWs)   bands (ev):

   -45.2037 -21.9069 -21.8757 -21.8016  -6.6910  -5.9456  -5.7754  -4.5760
    -4.5231  -4.5031  -4.3499  -4.2529   3.5578   6.2017   7.0688   7.1719
     8.0618   8.1771   8.7514   8.8174   9.2410  10.4137

          k = 0.0000 0.3750 0.1190 (  3200 PWs)   bands (ev):

   -45.2036 -21.9137 -21.8753 -21.8013  -6.6582  -5.9324  -5.7493  -4.5664
    -4.5232  -4.5088  -4.3357  -4.2509   3.4539   6.1864   7.0493   7.2145
     7.8263   8.1316   8.8058   8.8835   8.9959  10.4132

          k = 0.0000 0.3750 0.2380 (  3211 PWs)   bands (ev):

   -45.2032 -21.9302 -21.8744 -21.8006  -6.5928  -5.8918  -5.6725  -4.5415
    -4.5242  -4.5221  -4.3377  -4.2152   3.2185   6.1336   6.8980   7.3077
     7.4904   8.0381   8.3287   8.7878   9.3712  10.2867

          k = 0.0000 0.3750 0.3570 (  3196 PWs)   bands (ev):

   -45.2029 -21.9467 -21.8735 -21.7999  -6.5477  -5.8369  -5.5763  -4.5364
    -4.5239  -4.5131  -4.3661  -4.1621   3.0019   5.9972   6.6106   7.3732
     7.4542   7.8890   7.9838   8.7795   9.7128  10.0677

          k = 0.0000 0.3750-0.4761 (  3184 PWs)   bands (ev):

   -45.2028 -21.9534 -21.8731 -21.7997  -6.5348  -5.8103  -5.5301  -4.5420
    -4.5240  -4.4995  -4.3819  -4.1396   2.9170   5.8874   6.5206   7.3871
     7.4795   7.7371   7.9783   8.7782   9.8119   9.9862

          k = 0.0000-0.5000 0.0000 (  3226 PWs)   bands (ev):

   -45.2034 -21.9062 -21.8880 -21.8011  -6.5908  -5.9016  -5.7851  -4.5843
    -4.5313  -4.5022  -4.3355  -4.2711   3.4387   5.9588   7.2227   7.3224
     7.7724   7.9503   8.7053   8.8345   9.2591  10.9240

          k = 0.0000-0.5000 0.1190 (  3202 PWs)   bands (ev):

   -45.2033 -21.9130 -21.8875 -21.8008  -6.5694  -5.8793  -5.7610  -4.5743
    -4.5315  -4.5081  -4.2990  -4.2831   3.3458   5.9574   7.1930   7.3814
     7.5179   7.9019   8.8135   8.9187   8.9686  10.7680

          k = 0.0000-0.5000 0.2380 (  3198 PWs)   bands (ev):

   -45.2030 -21.9295 -21.8865 -21.8001  -6.5351  -5.8234  -5.6763  -4.5487
    -4.5321  -4.5221  -4.3151  -4.2148   3.1341   5.9414   6.9514   7.1856
     7.5293   7.7849   8.4006   8.7738   9.3597  10.4009

          k = 0.0000-0.5000 0.3570 (  3182 PWs)   bands (ev):

   -45.2026 -21.9459 -21.8856 -21.7994  -6.5218  -5.7646  -5.5575  -4.5360
    -4.5327  -4.5199  -4.3529  -4.1355   2.9375   5.8692   6.4773   7.2389
     7.6700   7.6859   7.9495   8.7454   9.6695  10.1029

          k = 0.0000-0.5000-0.4761 (  3176 PWs)   bands (ev):

   -45.2025 -21.9526 -21.8851 -21.7992  -6.5211  -5.7392  -5.4995  -4.5418
    -4.5330  -4.5057  -4.3716  -4.1040   2.8598   5.7919   6.3366   7.2769
     7.6234   7.7536   7.7848   8.7359   9.6627  10.0980

          k = 0.1250 0.1250 0.0000 (  3187 PWs)   bands (ev):

   -45.2048 -21.9089 -21.8163 -21.8160  -7.0479  -6.0428  -5.8268  -4.5260
    -4.5196  -4.4892  -4.3493  -4.2406   4.2056   6.7167   6.8106   7.2442
     8.2905   8.5963   8.8772   9.0144   9.3622   9.5394

          k = 0.1250 0.1250 0.1190 (  3192 PWs)   bands (ev):

   -45.2046 -21.9159 -21.8160 -21.8157  -6.9929  -6.0309  -5.8055  -4.5261
    -4.5242  -4.4888  -4.3462  -4.2512   4.0281   6.6917   6.7174   7.4347
     8.2055   8.4889   8.7856   9.0617   9.3734   9.5117

          k = 0.1250 0.1250 0.2380 (  3194 PWs)   bands (ev):

   -45.2043 -21.9327 -21.8154 -21.8151  -6.8574  -6.0014  -5.7528  -4.5411
    -4.5166  -4.4881  -4.3413  -4.2786   3.6536   6.6214   6.6557   7.4141
     8.0716   8.1887   8.7348   9.1225   9.3981   9.7481

          k = 0.1250 0.1250 0.3570 (  3198 PWs)   bands (ev):

   -45.2040 -21.9494 -21.8146 -21.8145  -6.7185  -5.9710  -5.6980  -4.5544
    -4.5035  -4.4880  -4.3412  -4.3087   3.3355   6.4963   6.5400   7.1797
     7.9958   8.0994   8.7111   9.1446   9.4232  10.1820

          k = 0.1250 0.1250-0.4761 (  3192 PWs)   bands (ev):

   -45.2039 -21.9562 -21.8143 -21.8142  -6.6600  -5.9580  -5.6744  -4.5593
    -4.4951  -4.4889  -4.3432  -4.3221   3.2167   6.3514   6.5039   7.1431
     7.9756   8.0742   8.7109   9.1465   9.4346  10.3946

          k = 0.1250 0.2500 0.0000 (  3195 PWs)   bands (ev):

   -45.2041 -21.9077 -21.8457 -21.8150  -6.8382  -5.9893  -5.8039  -4.5534
    -4.5162  -4.4936  -4.3371  -4.2336   3.7720   6.6445   6.9804   7.0085
     8.0924   8.2465   8.7970   9.0655   9.2825   9.8419

          k = 0.1250 0.2500 0.1190 (  3207 PWs)   bands (ev):

   -45.2040 -21.9146 -21.8454 -21.8147  -6.7897  -5.9834  -5.7819  -4.5482
    -4.5205  -4.4912  -4.3319  -4.2330   3.6735   6.5705   6.7231   7.2256
     7.9582   8.2530   8.7643   9.0844   9.2133   9.8611

          k = 0.1250 0.2500 0.2380 (  3203 PWs)   bands (ev):

   -45.2036 -21.9312 -21.8446 -21.8140  -6.6759  -5.9672  -5.7232  -4.5422
    -4.5205  -4.4833  -4.3274  -4.2292   3.4360   6.3835   6.6109   7.1936
     7.6599   8.0531   8.7680   9.0718   9.3479   9.9424

          k = 0.1250 0.2500 0.3570 (  3197 PWs)   bands (ev):

   -45.2033 -21.9478 -21.8439 -21.8133  -6.5695  -5.9463  -5.6548  -4.5478
    -4.5077  -4.4664  -4.3359  -4.2226   3.2057   6.1703   6.5753   6.9184
     7.4989   7.9706   8.6910   9.1265   9.5152  10.0016

          k = 0.1250 0.2500-0.4761 (  3208 PWs)   bands (ev):

   -45.2032 -21.9546 -21.8435 -21.8131  -6.5285  -5.9358  -5.6229  -4.5504
    -4.5033  -4.4539  -4.3439  -4.2199   3.1136   6.0564   6.5294   6.8286
     7.4842   7.9585   8.6441   9.1533   9.5673  10.0097

          k = 0.1250 0.3750 0.0000 (  3205 PWs)   bands (ev):

   -45.2034 -21.9064 -21.8750 -21.8137  -6.6132  -5.9263  -5.7978  -4.5697
    -4.5085  -4.4902  -4.3275  -4.2470   3.4401   6.2082   6.9867   7.2425
     7.6909   8.1780   8.4729   9.0506   9.3394  10.3828

          k = 0.1250 0.3750 0.1190 (  3203 PWs)   bands (ev):

   -45.2033 -21.9132 -21.8747 -21.8135  -6.5787  -5.9193  -5.7751  -4.5609
    -4.5121  -4.4856  -4.3135  -4.2399   3.3834   6.1921   6.7034   7.2497
     7.6675   8.1902   8.4830   9.1231   9.1840  10.3023

          k = 0.1250 0.3750 0.2380 (  3209 PWs)   bands (ev):

   -45.2030 -21.9297 -21.8738 -21.8128  -6.5103  -5.8944  -5.7063  -4.5444
    -4.5136  -4.4737  -4.3071  -4.2001   3.2357   6.1247   6.4791   6.9326
     7.3781   8.1549   8.5871   8.9544   9.4229  10.0691

          k = 0.1250 0.3750 0.3570 (  3197 PWs)   bands (ev):

   -45.2026 -21.9461 -21.8730 -21.8121  -6.4652  -5.8583  -5.6153  -4.5421
    -4.4996  -4.4542  -4.3248  -4.1469   3.0781   5.9638   6.4129   6.7044
     6.9835   8.0747   8.7435   8.8374   9.5595   9.9165

          k = 0.1250 0.3750-0.4761 (  3196 PWs)   bands (ev):

   -45.2025 -21.9529 -21.8726 -21.8118  -6.4530  -5.8410  -5.5703  -4.5431
    -4.4924  -4.4402  -4.3381  -4.1245   3.0113   5.8505   6.4090   6.6464
     6.8417   8.0574   8.7583   8.8308   9.4601   9.9805

          k = 0.1250-0.5000 0.0000 (  3214 PWs)   bands (ev):

   -45.2031 -21.9057 -21.8873 -21.8132  -6.5147  -5.8828  -5.8154  -4.5726
    -4.5052  -4.4864  -4.3164  -4.2661   3.3270   5.9701   7.0511   7.4667
     7.5135   7.8784   8.4937   9.0253   9.3610  10.6967

          k = 0.1250-0.5000 0.1190 (  3202 PWs)   bands (ev):

   -45.2030 -21.9125 -21.8869 -21.8129  -6.4905  -5.8673  -5.7960  -4.5628
    -4.5083  -4.4821  -4.2818  -4.2715   3.2820   5.9670   6.7050   7.2848
     7.7380   7.8969   8.4839   9.1312   9.1769  10.5097

          k = 0.1250-0.5000 0.2380 (  3190 PWs)   bands (ev):

   -45.2027 -21.9289 -21.8859 -21.8123  -6.4523  -5.8295  -5.7203  -4.5441
    -4.5070  -4.4735  -4.2882  -4.1995   3.1621   5.9445   6.4425   6.7865
     7.4082   8.3061   8.3294   8.9815   9.4130  10.0913

          k = 0.1250-0.5000 0.3570 (  3204 PWs)   bands (ev):

   -45.2024 -21.9453 -21.8850 -21.8116  -6.4394  -5.7914  -5.6079  -4.5405
    -4.4825  -4.4647  -4.3126  -4.1206   3.0302   5.8555   6.3920   6.3925
     7.0242   8.1953   8.5537   8.8672   9.3951   9.9948

          k = 0.1250-0.5000-0.4761 (  3180 PWs)   bands (ev):

   -45.2022 -21.9521 -21.8846 -21.8113  -6.4396  -5.7755  -5.5524  -4.5413
    -4.4659  -4.4605  -4.3268  -4.0891   2.9732   5.7677   6.2832   6.4093
     6.8688   8.1687   8.6264   8.8214   9.2258  10.1032

          k = 0.2500 0.2500 0.0000 (  3199 PWs)   bands (ev):

   -45.2034 -21.9064 -21.8446 -21.8441  -6.6376  -5.9357  -5.8197  -4.5512
    -4.5205  -4.4702  -4.2961  -4.2275   3.4450   6.6010   6.8409   7.1400
     7.6214   7.8173   8.6873   9.0566   9.4841  10.0615

          k = 0.2500 0.2500 0.1190 (  3199 PWs)   bands (ev):

   -45.2033 -21.9133 -21.8443 -21.8438  -6.5909  -5.9390  -5.8021  -4.5423
    -4.5232  -4.4627  -4.2876  -4.2168   3.4258   6.4887   6.5821   6.9872
     7.6343   7.8827   8.9049   8.9630   9.4995   9.9442

          k = 0.2500 0.2500 0.2380 (  3206 PWs)   bands (ev):

   -45.2030 -21.9298 -21.8435 -21.8431  -6.4850  -5.9472  -5.7489  -4.5270
    -4.5198  -4.4408  -4.2702  -4.1935   3.3537   6.2113   6.2340   6.8882
     7.4573   7.5556   9.0224   9.3240   9.5611   9.7122

          k = 0.2500 0.2500 0.3570 (  3201 PWs)   bands (ev):

   -45.2027 -21.9463 -21.8427 -21.8424  -6.3926  -5.9556  -5.6763  -4.5278
    -4.4990  -4.4071  -4.2605  -4.1731   3.2473   5.9516   6.1215   6.5978
     7.2331   7.3909   9.0847   9.4604   9.5385   9.6902

          k = 0.2500 0.2500-0.4761 (  3212 PWs)   bands (ev):

   -45.2025 -21.9531 -21.8424 -21.8422  -6.3592  -5.9592  -5.6392  -4.5273
    -4.4916  -4.3867  -4.2612  -4.1653   3.1950   5.8512   6.1127   6.4130
     7.1782   7.3757   9.0350   9.4852   9.4870   9.7485

          k = 0.2500 0.3750 0.0000 (  3221 PWs)   bands (ev):

   -45.2027 -21.9051 -21.8735 -21.8430  -6.4316  -5.8808  -5.8351  -4.5490
    -4.5050  -4.4301  -4.2679  -4.2414   3.1606   6.2279   6.7697   7.2319
     7.3933   7.8603   8.2359   9.1077   9.6145  10.1390

          k = 0.2500 0.3750 0.1190 (  3212 PWs)   bands (ev):

   -45.2026 -21.9119 -21.8732 -21.8427  -6.3902  -5.8884  -5.8242  -4.5382
    -4.5043  -4.4157  -4.2557  -4.2212   3.1887   6.1978   6.4925   6.7552
     7.4067   7.9870   8.5523   9.0606   9.6256   9.9421

          k = 0.2500 0.3750 0.2380 (  3201 PWs)   bands (ev):

   -45.2023 -21.9283 -21.8724 -21.8420  -6.3097  -5.9004  -5.7789  -4.5163
    -4.4956  -4.3836  -4.2312  -4.1668   3.2415   5.9694   6.0743   6.4560
     7.1294   7.6236   8.9167   9.3496   9.5647   9.6905

          k = 0.2500 0.3750 0.3570 (  3198 PWs)   bands (ev):

   -45.2020 -21.9447 -21.8716 -21.8413  -6.2634  -5.9073  -5.6970  -4.5076
    -4.4714  -4.3492  -4.2122  -4.1097   3.2637   5.7478   5.7920   6.3158
     6.7470   7.3627   8.6795   9.4851   9.5815   9.8860

          k = 0.2500 0.3750-0.4761 (  3198 PWs)   bands (ev):

   -45.2018 -21.9514 -21.8713 -21.8410  -6.2537  -5.9095  -5.6520  -4.5054
    -4.4598  -4.3321  -4.2065  -4.0861   3.2612   5.6450   5.7382   6.2359
     6.5831   7.3210   8.4739   9.5140   9.6075  10.0015

          k = 0.2500-0.5000 0.0000 (  3224 PWs)   bands (ev):

   -45.2025 -21.9044 -21.8857 -21.8424  -6.3457  -5.8583  -5.8393  -4.5463
    -4.4971  -4.3995  -4.2635  -4.2563   3.0553   5.9918   6.8660   7.0196
     7.6327   7.8619   7.9687   9.1655   9.6090  10.1474

          k = 0.2500-0.5000 0.1190 (  3212 PWs)   bands (ev):

   -45.2023 -21.9112 -21.8853 -21.8421  -6.3087  -5.8557  -5.8412  -4.5349
    -4.4953  -4.3801  -4.2523  -4.2306   3.0972   5.9865   6.4521   6.7169
     7.3917   8.1790   8.2595   9.1211   9.6168   9.9052

          k = 0.2500-0.5000 0.2380 (  3204 PWs)   bands (ev):

   -45.2020 -21.9276 -21.8845 -21.8414  -6.2505  -5.8463  -5.8105  -4.5124
    -4.4833  -4.3451  -4.2267  -4.1587   3.1912   5.8852   5.9480   6.2993
     7.0815   7.7057   8.7518   9.3580   9.4848   9.7270

          k = 0.2500-0.5000 0.3570 (  3202 PWs)   bands (ev):

   -45.2017 -21.9440 -21.8836 -21.8407  -6.2367  -5.8522  -5.7112  -4.5019
    -4.4556  -4.3159  -4.2029  -4.0817   3.2650   5.6148   5.7549   6.0589
     6.7074   7.4234   8.3548   9.5178   9.5654   9.9712

          k = 0.2500-0.5000-0.4761 (  3200 PWs)   bands (ev):

   -45.2016 -21.9507 -21.8833 -21.8405  -6.2399  -5.8548  -5.6585  -4.4993
    -4.4415  -4.3034  -4.1934  -4.0500   3.2858   5.5644   5.6197   6.0132
     6.5251   7.3756   8.0980   9.5555   9.5935  10.1185

          k = 0.3750 0.3750 0.0000 (  3222 PWs)   bands (ev):

   -45.2021 -21.9037 -21.8721 -21.8719  -6.2783  -5.8398  -5.8280  -4.5337
    -4.4756  -4.3694  -4.2553  -4.2072   2.8928   6.1373   6.3813   7.2849
     7.4947   7.5843   8.0844   8.8795   9.6861  10.0199

          k = 0.3750 0.3750 0.1190 (  3220 PWs)   bands (ev):

   -45.2019 -21.9105 -21.8718 -21.8716  -6.2253  -5.8484  -5.8481  -4.5210
    -4.4719  -4.3430  -4.2242  -4.1935   2.9730   6.1198   6.2938   6.5679
     6.9897   8.0466   8.7076   8.7299   9.4092  10.0196

          k = 0.3750 0.3750 0.2380 (  3207 PWs)   bands (ev):

   -45.2016 -21.9269 -21.8711 -21.8709  -6.1187  -5.8950  -5.8413  -4.4901
    -4.4651  -4.2858  -4.1533  -4.1493   3.1853   5.8147   5.9208   6.1376
     6.6894   7.4638   8.4907   9.4304   9.4363  10.0194

          k = 0.3750 0.3750 0.3570 (  3199 PWs)   bands (ev):

   -45.2013 -21.9432 -21.8703 -21.8702  -6.0707  -5.9382  -5.7687  -4.4598
    -4.4593  -4.2350  -4.1041  -4.0755   3.4288   5.4058   5.5294   6.0503
     6.6321   6.8261   7.8003   9.8257   9.8835  10.0230

          k = 0.3750 0.3750-0.4761 (  3192 PWs)   bands (ev):

   -45.2012 -21.9499 -21.8700 -21.8699  -6.0676  -5.9552  -5.7200  -4.4578
    -4.4466  -4.2142  -4.0820  -4.0453   3.5386   5.2874   5.3824   5.9840
     6.6022   6.6227   7.4951   9.9534   9.9991  10.0536

          k = 0.3750-0.5000 0.0000 (  3220 PWs)   bands (ev):

   -45.2018 -21.9030 -21.8841 -21.8714  -6.2329  -5.8275  -5.7992  -4.5281
    -4.4564  -4.3281  -4.2790  -4.1848   2.7864   5.9429   6.3753   7.2034
     7.5269   7.7885   7.8601   8.8414   9.4360  10.1494

          k = 0.3750-0.5000 0.1190 (  3224 PWs)   bands (ev):

   -45.2016 -21.9098 -21.8838 -21.8711  -6.1754  -5.8494  -5.8195  -4.5152
    -4.4527  -4.2908  -4.2468  -4.1706   2.8811   5.9366   6.3159   6.5270
     6.8861   8.1995   8.4660   8.8188   9.1110  10.1430

          k = 0.3750-0.5000 0.2380 (  3210 PWs)   bands (ev):

   -45.2013 -21.9262 -21.8830 -21.8704  -6.0560  -5.8749  -5.8656  -4.4844
    -4.4460  -4.2190  -4.1686  -4.1197   3.1436   5.7950   5.8924   5.9551
     6.5482   7.4938   8.1450   9.4169   9.4453  10.1342

          k = 0.3750-0.5000 0.3570 (  3208 PWs)   bands (ev):

   -45.2010 -21.9425 -21.8823 -21.8697  -6.0267  -5.9083  -5.8010  -4.4559
    -4.4387  -4.1703  -4.0907  -4.0453   3.4785   5.3181   5.4951   5.8699
     6.4791   6.8655   7.3222   9.8757   9.9463  10.1283

          k = 0.3750-0.5000-0.4761 (  3204 PWs)   bands (ev):

   -45.2009 -21.9492 -21.8819 -21.8694  -6.0369  -5.9251  -5.7457  -4.4477
    -4.4323  -4.1524  -4.0586  -4.0113   3.6524   5.1582   5.3353   5.8262
     6.4302   6.6802   6.9539  10.0095  10.1153  10.1352

          k =-0.5000-0.5000 0.0000 (  3224 PWs)   bands (ev):

   -45.2015 -21.9023 -21.8834 -21.8834  -6.2132  -5.7837  -5.7837  -4.5218
    -4.4251  -4.2967  -4.2967  -4.1567   2.6767   5.8309   6.2829   7.3527
     7.3527   7.8563   7.8563   8.7054   9.1284  10.3058

          k =-0.5000-0.5000 0.1190 (  3228 PWs)   bands (ev):

   -45.2014 -21.9091 -21.8831 -21.8831  -6.1512  -5.8118  -5.8118  -4.5089
    -4.4245  -4.2510  -4.2510  -4.1481   2.7858   5.8239   6.2848   6.6410
     6.6410   8.2984   8.6101   8.6101   8.6995  10.3006

          k =-0.5000-0.5000 0.2380 (  3208 PWs)   bands (ev):

   -45.2011 -21.9255 -21.8824 -21.8824  -5.9990  -5.8741  -5.8741  -4.4779
    -4.4230  -4.1451  -4.1451  -4.1243   3.0982   5.7997   5.8965   5.8965
     6.2893   7.4727   7.7390   9.4352   9.4352  10.2881

          k =-0.5000-0.5000 0.3570 (  3220 PWs)   bands (ev):

   -45.2007 -21.9418 -21.8817 -21.8817  -5.9304  -5.9304  -5.8435  -4.4469
    -4.4215  -4.0952  -4.0441  -4.0441   3.5323   5.4045   5.4045   5.7510
     6.2939   6.7673   6.7953   9.9679   9.9679  10.2756

          k =-0.5000-0.5000-0.4761 (  3240 PWs)   bands (ev):

   -45.2006 -21.9486 -21.8814 -21.8814  -5.9522  -5.9522  -5.7782  -4.4341
    -4.4209  -4.0810  -4.0033  -4.0033   3.7889   5.2329   5.2329   5.7126
     6.2958   6.3101   6.5560  10.1420  10.1420  10.2705

     highest occupied level (ev):    10.9240

!    total energy              =    -333.76331702 Ry
     estimated scf accuracy    <          3.5E-09 Ry

     The total energy is the sum of the following terms:
     one-electron contribution =     -86.79979663 Ry
     hartree contribution      =      70.40318042 Ry
     xc contribution           =     -49.68088995 Ry
     ewald contribution        =    -267.68581086 Ry

     convergence has been achieved in  17 iterations

     Writing all to output data dir ./tmp_pzt/pzt.save/ :
     XML data file, charge density, pseudopotentials, collected wavefunctions

     init_run     :      3.87s CPU      4.10s WALL (       1 calls)
     electrons    :    107.42s CPU    109.42s WALL (       1 calls)

     Called by init_run:
     wfcinit      :      2.50s CPU      2.59s WALL (       1 calls)
     potinit      :      0.32s CPU      0.33s WALL (       1 calls)
     hinit0       :      0.72s CPU      0.75s WALL (       1 calls)

     Called by electrons:
     c_bands      :     86.38s CPU     86.95s WALL (      17 calls)
     sum_band     :     15.82s CPU     16.60s WALL (      17 calls)
     v_of_rho     :      0.13s CPU      0.14s WALL (      18 calls)
     newd         :      5.26s CPU      5.97s WALL (      18 calls)
     mix_rho      :      0.09s CPU      0.09s WALL (      17 calls)

     Called by c_bands:
     init_us_2    :      2.92s CPU      2.95s WALL (    2625 calls)
     cegterg      :     79.54s CPU     80.06s WALL (    1275 calls)

     Called by *egterg:
     cdiaghg      :      2.82s CPU      2.86s WALL (    6697 calls)
     h_psi        :     60.58s CPU     61.04s WALL (    6772 calls)
     s_psi        :      3.66s CPU      3.69s WALL (    6772 calls)
     g_psi        :      0.70s CPU      0.70s WALL (    5422 calls)

     Called by h_psi:
     h_psi:calbec :      4.47s CPU      4.51s WALL (    6772 calls)
     vloc_psi     :     51.88s CPU     52.27s WALL (    6772 calls)
     add_vuspsi   :      3.82s CPU      3.85s WALL (    6772 calls)

     General routines
     calbec       :      5.67s CPU      5.71s WALL (    8047 calls)
     fft          :      0.29s CPU      0.31s WALL (     105 calls)
     ffts         :      0.26s CPU      0.26s WALL (      35 calls)
     fftw         :     46.22s CPU     46.57s WALL (  202818 calls)
     interpolate  :      0.29s CPU      0.29s WALL (      18 calls)

     Parallel routines

     PWSCF        :   1m51.46s CPU   1m53.95s WALL


   This run was terminated on:   2:58:45  18Nov2025            

=------------------------------------------------------------------------------=
   JOB DONE.
=------------------------------------------------------------------------------=
