
     Program PWSCF v.7.4.1 starts on 13Nov2025 at 19:31:27 

     This program is part of the open-source Quantum ESPRESSO suite
     for quantum simulation of materials; please cite
         "P. Giannozzi et al., J. Phys.:Condens. Matter 21 395502 (2009);
         "P. Giannozzi et al., J. Phys.:Condens. Matter 29 465901 (2017);
         "P. Giannozzi et al., J. Chem. Phys. 152 154105 (2020);
          URL http://www.quantum-espresso.org", 
     in publications or presentations arising from this work. More details at
     http://www.quantum-espresso.org/quote

     Parallel version (MPI), running on     1 processors

     MPI processes distributed on     1 nodes
     4873 MiB available memory on the printing compute node when the environment starts

     Reading input from pzt/scf/pzt_scf_nk6.in

     Current dimensions of program PWSCF are:
     Max number of different atomic species (ntypx) = 10
     Max number of k-points (npk) =  40000
     Max angular momentum in pseudopotentials (lmaxx) =  4

     IMPORTANT: XC functional enforced from input :
     Exchange-correlation= LDA
                           (   1   1   0   0   0   0   0)
     Any further DFT definition will be discarded
     Please, verify this is what you really want

     Message from routine setup:
     using ibrav=0 with symmetry is DISCOURAGED, use correct ibrav instead

     Subspace diagonalization in iterative solution of the eigenvalue problem:
     a serial algorithm will be used


     G-vector sticks info
     --------------------
     sticks:   dense  smooth     PW     G-vecs:    dense   smooth      PW
     Sum        2025    1005    293                72333    25625    4177

     Using Slab Decomposition



     bravais-lattice index     =            0
     lattice parameter (alat)  =       7.2956  a.u.
     unit-cell volume          =     407.8422 (a.u.)^3
     number of atoms/cell      =            5
     number of atomic types    =            3
     number of electrons       =        44.00
     number of Kohn-Sham states=           22
     kinetic-energy cutoff     =      60.0000  Ry
     charge density cutoff     =     480.0000  Ry
     scf convergence threshold =      1.0E-08
     mixing beta               =       0.3000
     number of iterations used =            8  plain     mixing
     Exchange-correlation= LDA
                           (   1   1   0   0   0   0   0)

     celldm(1)=   7.295621  celldm(2)=   0.000000  celldm(3)=   0.000000
     celldm(4)=   0.000000  celldm(5)=   0.000000  celldm(6)=   0.000000

     crystal axes: (cart. coord. in units of alat)
               a(1) = (   1.000000   0.000000   0.000000 )  
               a(2) = (   0.000000   1.000000   0.000000 )  
               a(3) = (   0.000000   0.000000   1.050281 )  

     reciprocal axes: (cart. coord. in units 2 pi/alat)
               b(1) = (  1.000000  0.000000  0.000000 )  
               b(2) = (  0.000000  1.000000  0.000000 )  
               b(3) = (  0.000000  0.000000  0.952127 )  


     PseudoPot. # 1 for Pb read from file:
     ./pseudos/Pb.pz-d-van.UPF
     MD5 check sum: 7d60cbfc971891b50292ee40cb29912a
     Pseudo is Ultrasoft, Zval = 14.0
     Generated by new atomic code, or converted to UPF format
     Using radial grid of  899 points,  6 beta functions with: 
                l(1) =   0
                l(2) =   0
                l(3) =   1
                l(4) =   1
                l(5) =   2
                l(6) =   2
     Q(r) pseudized with  8 coefficients,  rinner =    1.000   1.000   1.000
                                                       1.000   1.000

     PseudoPot. # 2 for Ti read from file:
     ./pseudos/Ti.pz-sp-van_ak.UPF
     MD5 check sum: 93c5ef60b250b0ab110b997ad8a4342c
     Pseudo is Ultrasoft, Zval = 12.0
     Generated by new atomic code, or converted to UPF format
     Using radial grid of  851 points,  6 beta functions with: 
                l(1) =   0
                l(2) =   0
                l(3) =   1
                l(4) =   1
                l(5) =   2
                l(6) =   2
     Q(r) pseudized with  8 coefficients,  rinner =    1.000   1.000   1.000
                                                       1.000   1.000

     PseudoPot. # 3 for O  read from file:
     ./pseudos/O.pz-van_ak.UPF
     MD5 check sum: b77f3d8cfe972ebbeca95ec6abb46c7c
     Pseudo is Ultrasoft, Zval =  6.0
     Generated by new atomic code, or converted to UPF format
     Using radial grid of  737 points,  4 beta functions with: 
                l(1) =   0
                l(2) =   0
                l(3) =   1
                l(4) =   1
     Q(r) pseudized with  8 coefficients,  rinner =    0.800   0.800   0.800


     atomic species   valence    mass     pseudopotential
     Pb               14.00   207.20000     Pb( 1.00)
     Ti               12.00    47.86700     Ti( 1.00)
     O                 6.00    15.99900     O ( 1.00)

      8 Sym. Ops. (no inversion) found



   Cartesian axes

     site n.     atom                  positions (alat units)
         1        Pb     tau(   1) = (   0.0000000   0.0000000  -0.0005884  )
         2        Ti     tau(   2) = (   0.5000000   0.5000000   0.5645672  )
         3        O      tau(   3) = (   0.5000000   0.5000000   0.1057338  )
         4        O      tau(   4) = (   0.5000000   0.0000000   0.6314019  )
         5        O      tau(   5) = (   0.0000000   0.5000000   0.6314019  )

     number of k points=    40
                       cart. coord. in units 2pi/alat
        k(    1) = (   0.0000000   0.0000000   0.0000000), wk =   0.0092593
        k(    2) = (   0.0000000   0.0000000   0.1586878), wk =   0.0185185
        k(    3) = (   0.0000000   0.0000000   0.3173755), wk =   0.0185185
        k(    4) = (   0.0000000   0.0000000  -0.4760633), wk =   0.0092593
        k(    5) = (   0.0000000   0.1666667   0.0000000), wk =   0.0370370
        k(    6) = (   0.0000000   0.1666667   0.1586878), wk =   0.0740741
        k(    7) = (   0.0000000   0.1666667   0.3173755), wk =   0.0740741
        k(    8) = (   0.0000000   0.1666667  -0.4760633), wk =   0.0370370
        k(    9) = (   0.0000000   0.3333333   0.0000000), wk =   0.0370370
        k(   10) = (   0.0000000   0.3333333   0.1586878), wk =   0.0740741
        k(   11) = (   0.0000000   0.3333333   0.3173755), wk =   0.0740741
        k(   12) = (   0.0000000   0.3333333  -0.4760633), wk =   0.0370370
        k(   13) = (   0.0000000  -0.5000000   0.0000000), wk =   0.0185185
        k(   14) = (   0.0000000  -0.5000000   0.1586878), wk =   0.0370370
        k(   15) = (   0.0000000  -0.5000000   0.3173755), wk =   0.0370370
        k(   16) = (   0.0000000  -0.5000000  -0.4760633), wk =   0.0185185
        k(   17) = (   0.1666667   0.1666667   0.0000000), wk =   0.0370370
        k(   18) = (   0.1666667   0.1666667   0.1586878), wk =   0.0740741
        k(   19) = (   0.1666667   0.1666667   0.3173755), wk =   0.0740741
        k(   20) = (   0.1666667   0.1666667  -0.4760633), wk =   0.0370370
        k(   21) = (   0.1666667   0.3333333   0.0000000), wk =   0.0740741
        k(   22) = (   0.1666667   0.3333333   0.1586878), wk =   0.1481481
        k(   23) = (   0.1666667   0.3333333   0.3173755), wk =   0.1481481
        k(   24) = (   0.1666667   0.3333333  -0.4760633), wk =   0.0740741
        k(   25) = (   0.1666667  -0.5000000   0.0000000), wk =   0.0370370
        k(   26) = (   0.1666667  -0.5000000   0.1586878), wk =   0.0740741
        k(   27) = (   0.1666667  -0.5000000   0.3173755), wk =   0.0740741
        k(   28) = (   0.1666667  -0.5000000  -0.4760633), wk =   0.0370370
        k(   29) = (   0.3333333   0.3333333   0.0000000), wk =   0.0370370
        k(   30) = (   0.3333333   0.3333333   0.1586878), wk =   0.0740741
        k(   31) = (   0.3333333   0.3333333   0.3173755), wk =   0.0740741
        k(   32) = (   0.3333333   0.3333333  -0.4760633), wk =   0.0370370
        k(   33) = (   0.3333333  -0.5000000   0.0000000), wk =   0.0370370
        k(   34) = (   0.3333333  -0.5000000   0.1586878), wk =   0.0740741
        k(   35) = (   0.3333333  -0.5000000   0.3173755), wk =   0.0740741
        k(   36) = (   0.3333333  -0.5000000  -0.4760633), wk =   0.0370370
        k(   37) = (  -0.5000000  -0.5000000   0.0000000), wk =   0.0092593
        k(   38) = (  -0.5000000  -0.5000000   0.1586878), wk =   0.0185185
        k(   39) = (  -0.5000000  -0.5000000   0.3173755), wk =   0.0185185
        k(   40) = (  -0.5000000  -0.5000000  -0.4760633), wk =   0.0092593

     Dense  grid:    72333 G-vectors     FFT dimensions: (  54,  54,  54)

     Smooth grid:    25625 G-vectors     FFT dimensions: (  36,  36,  40)

     Estimated max dynamical RAM per process >     305.81 MB

     Initial potential from superposition of free atoms

     starting charge      42.9982, renormalised to      44.0000
     Starting wfcs are   31 randomized atomic wfcs

     total cpu time spent up to now is        3.0 secs

     Self-consistent Calculation

     iteration #  1     ecut=    60.00 Ry     beta= 0.30
     Davidson diagonalization with overlap
     ethr =  1.00E-02,  avg # of iterations =  2.0

     total cpu time spent up to now is        6.0 secs

     total energy              =    -333.59610392 Ry
     estimated scf accuracy    <       1.00718387 Ry

     iteration #  2     ecut=    60.00 Ry     beta= 0.30
     Davidson diagonalization with overlap
     ethr =  2.29E-03,  avg # of iterations =  3.2

     total cpu time spent up to now is        9.3 secs

     total energy              =    -333.74199548 Ry
     estimated scf accuracy    <       0.10391062 Ry

     iteration #  3     ecut=    60.00 Ry     beta= 0.30
     Davidson diagonalization with overlap
     ethr =  2.36E-04,  avg # of iterations =  4.5

     total cpu time spent up to now is       13.1 secs

     total energy              =    -333.74080540 Ry
     estimated scf accuracy    <       0.09951550 Ry

     iteration #  4     ecut=    60.00 Ry     beta= 0.30
     Davidson diagonalization with overlap
     ethr =  2.26E-04,  avg # of iterations =  4.6

     total cpu time spent up to now is       16.9 secs

     total energy              =    -333.77597603 Ry
     estimated scf accuracy    <       0.03757216 Ry

     iteration #  5     ecut=    60.00 Ry     beta= 0.30
     Davidson diagonalization with overlap
     ethr =  8.54E-05,  avg # of iterations =  3.1

     total cpu time spent up to now is       20.1 secs

     total energy              =    -333.76397761 Ry
     estimated scf accuracy    <       0.06135497 Ry

     iteration #  6     ecut=    60.00 Ry     beta= 0.30
     Davidson diagonalization with overlap
     ethr =  8.54E-05,  avg # of iterations =  1.6

     total cpu time spent up to now is       23.0 secs

     total energy              =    -333.75591164 Ry
     estimated scf accuracy    <       0.02863532 Ry

     iteration #  7     ecut=    60.00 Ry     beta= 0.30
     Davidson diagonalization with overlap
     ethr =  6.51E-05,  avg # of iterations =  4.4

     total cpu time spent up to now is       26.5 secs

     total energy              =    -333.76296363 Ry
     estimated scf accuracy    <       0.00032888 Ry

     iteration #  8     ecut=    60.00 Ry     beta= 0.30
     Davidson diagonalization with overlap
     ethr =  7.47E-07,  avg # of iterations =  6.3

     total cpu time spent up to now is       31.0 secs

     total energy              =    -333.76324874 Ry
     estimated scf accuracy    <       0.00056769 Ry

     iteration #  9     ecut=    60.00 Ry     beta= 0.30
     Davidson diagonalization with overlap
     ethr =  7.47E-07,  avg # of iterations =  4.3

     total cpu time spent up to now is       34.2 secs

     total energy              =    -333.76324816 Ry
     estimated scf accuracy    <       0.00010870 Ry

     iteration # 10     ecut=    60.00 Ry     beta= 0.30
     Davidson diagonalization with overlap
     ethr =  2.47E-07,  avg # of iterations =  4.7

     total cpu time spent up to now is       38.1 secs

     total energy              =    -333.76330048 Ry
     estimated scf accuracy    <       0.00005132 Ry

     iteration # 11     ecut=    60.00 Ry     beta= 0.30
     Davidson diagonalization with overlap
     ethr =  1.17E-07,  avg # of iterations =  1.2

     total cpu time spent up to now is       40.8 secs

     total energy              =    -333.76329855 Ry
     estimated scf accuracy    <       0.00003068 Ry

     iteration # 12     ecut=    60.00 Ry     beta= 0.30
     Davidson diagonalization with overlap
     ethr =  6.97E-08,  avg # of iterations =  2.3

     total cpu time spent up to now is       43.9 secs

     total energy              =    -333.76329727 Ry
     estimated scf accuracy    <       0.00001782 Ry

     iteration # 13     ecut=    60.00 Ry     beta= 0.30
     Davidson diagonalization with overlap
     ethr =  4.05E-08,  avg # of iterations =  2.4

     total cpu time spent up to now is       46.8 secs

     total energy              =    -333.76329867 Ry
     estimated scf accuracy    <       0.00000652 Ry

     iteration # 14     ecut=    60.00 Ry     beta= 0.30
     Davidson diagonalization with overlap
     ethr =  1.48E-08,  avg # of iterations =  2.4

     total cpu time spent up to now is       49.8 secs

     total energy              =    -333.76329744 Ry
     estimated scf accuracy    <       0.00000497 Ry

     iteration # 15     ecut=    60.00 Ry     beta= 0.30
     Davidson diagonalization with overlap
     ethr =  1.13E-08,  avg # of iterations =  4.5

     total cpu time spent up to now is       53.5 secs

     total energy              =    -333.76329852 Ry
     estimated scf accuracy    <       0.00000131 Ry

     iteration # 16     ecut=    60.00 Ry     beta= 0.30
     Davidson diagonalization with overlap
     ethr =  2.98E-09,  avg # of iterations =  4.0

     total cpu time spent up to now is       56.7 secs

     total energy              =    -333.76329851 Ry
     estimated scf accuracy    <       0.00000035 Ry

     iteration # 17     ecut=    60.00 Ry     beta= 0.30
     Davidson diagonalization with overlap
     ethr =  8.00E-10,  avg # of iterations =  5.2

     total cpu time spent up to now is       60.7 secs

     total energy              =    -333.76329867 Ry
     estimated scf accuracy    <       0.00000018 Ry

     iteration # 18     ecut=    60.00 Ry     beta= 0.30
     Davidson diagonalization with overlap
     ethr =  4.05E-10,  avg # of iterations =  3.0

     total cpu time spent up to now is       63.9 secs

     total energy              =    -333.76329849 Ry
     estimated scf accuracy    <       0.00000008 Ry

     iteration # 19     ecut=    60.00 Ry     beta= 0.30
     Davidson diagonalization with overlap
     ethr =  1.92E-10,  avg # of iterations =  4.4

     total cpu time spent up to now is       67.4 secs

     End of self-consistent calculation

          k = 0.0000 0.0000 0.0000 (  3155 PWs)   bands (ev):

   -45.2059 -21.9104 -21.8049 -21.8049  -7.2148  -6.0864  -5.8559  -4.5084
    -4.5084  -4.4743  -4.3575  -4.2557   4.7178   6.7131   6.7131   7.0882
     8.6548   8.6548   8.9375   9.1945   9.4155   9.4155

          k = 0.0000 0.0000 0.1587 (  3199 PWs)   bands (ev):

   -45.2057 -21.9224 -21.8045 -21.8045  -7.1136  -6.0560  -5.8200  -4.5172
    -4.5172  -4.4736  -4.3518  -4.2936   4.2329   6.7555   6.7555   7.3949
     8.4955   8.4955   8.8950   9.0265   9.4749   9.4749

          k = 0.0000 0.0000 0.3174 (  3183 PWs)   bands (ev):

   -45.2053 -21.9463 -21.8036 -21.8036  -6.8994  -5.9908  -5.7521  -4.5346
    -4.5346  -4.4721  -4.3737  -4.3414   3.5842   6.8321   6.8321   6.9418
     8.2532   8.2532   8.8131   9.5577   9.5577   9.8143

          k = 0.0000 0.0000-0.4761 (  3202 PWs)   bands (ev):

   -45.2050 -21.9582 -21.8032 -21.8032  -6.7849  -5.9557  -5.7211  -4.5433
    -4.5433  -4.4714  -4.4163  -4.3368   3.3356   6.5680   6.8647   6.8647
     8.1582   8.1582   8.7736   9.5922   9.5922  10.5693

          k = 0.0000 0.1667 0.0000 (  3178 PWs)   bands (ev):

   -45.2055 -21.9096 -21.8259 -21.8041  -7.0704  -6.0494  -5.8251  -4.5332
    -4.5069  -4.4887  -4.3591  -4.2439   4.2592   6.7350   6.8207   7.1289
     8.5819   8.6629   8.9237   9.0479   9.1190   9.4711

          k = 0.0000 0.1667 0.1587 (  3190 PWs)   bands (ev):

   -45.2052 -21.9215 -21.8254 -21.8036  -6.9764  -6.0268  -5.7873  -4.5334
    -4.5160  -4.4882  -4.3553  -4.2640   3.9316   6.6283   6.8685   7.3718
     8.2879   8.4854   8.7757   9.0595   9.1299   9.6409

          k = 0.0000 0.1667 0.3174 (  3198 PWs)   bands (ev):

   -45.2048 -21.9452 -21.8244 -21.8027  -6.7835  -5.9776  -5.7096  -4.5340
    -4.5311  -4.4873  -4.3573  -4.2998   3.4158   6.4418   6.9537   7.1869
     7.8934   8.2469   8.7201   9.1701   9.2203  10.1224

          k = 0.0000 0.1667-0.4761 (  3174 PWs)   bands (ev):

   -45.2046 -21.9570 -21.8239 -21.8023  -6.6852  -5.9497  -5.6697  -4.5429
    -4.5304  -4.4869  -4.3613  -4.3160   3.2021   6.2425   6.9886   7.0176
     7.8081   8.1592   8.7890   9.1880   9.2553  10.4676

          k = 0.0000 0.3333 0.0000 (  3204 PWs)   bands (ev):

   -45.2045 -21.9078 -21.8676 -21.8025  -6.7596  -5.9678  -5.7778  -4.5697
    -4.5172  -4.5037  -4.3547  -4.2460   3.6526   6.3657   7.0036   7.0937
     8.2238   8.3113   8.7832   8.8091   9.2266  10.1311

          k = 0.0000 0.3333 0.1587 (  3202 PWs)   bands (ev):

   -45.2043 -21.9196 -21.8670 -21.8020  -6.6948  -5.9487  -5.7324  -4.5546
    -4.5176  -4.5131  -4.3425  -4.2401   3.4616   6.3101   7.0080   7.1579
     7.8644   8.2200   8.6752   8.8094   9.1137  10.2237

          k = 0.0000 0.3333 0.3174 (  3200 PWs)   bands (ev):

   -45.2038 -21.9429 -21.8658 -21.8011  -6.5887  -5.8912  -5.6208  -4.5327
    -4.5197  -4.5175  -4.3627  -4.1945   3.1173   6.1338   6.7829   7.2634
     7.6001   7.9836   8.0854   8.8182   9.5928  10.1317

          k = 0.0000 0.3333-0.4761 (  3194 PWs)   bands (ev):

   -45.2036 -21.9545 -21.8652 -21.8006  -6.5495  -5.8506  -5.5536  -4.5421
    -4.5177  -4.4996  -4.3841  -4.1666   2.9609   5.9429   6.6535   7.2961
     7.5826   7.7747   8.0496   8.8262   9.7931  10.0150

          k = 0.0000-0.5000 0.0000 (  3226 PWs)   bands (ev):

   -45.2040 -21.9068 -21.8885 -21.8017  -6.5906  -5.9015  -5.7849  -4.5843
    -4.5312  -4.5022  -4.3354  -4.2710   3.4388   5.9588   7.2228   7.3225
     7.7726   7.9505   8.7056   8.8347   9.2593  10.9242

          k = 0.0000-0.5000 0.1587 (  3206 PWs)   bands (ev):

   -45.2038 -21.9184 -21.8878 -21.8012  -6.5567  -5.8630  -5.7398  -4.5669
    -4.5316  -4.5121  -4.2920  -4.2737   3.2822   5.9551   7.1832   7.3452
     7.4241   7.8676   8.7859   8.8005   9.0576  10.6590

          k = 0.0000-0.5000 0.3174 (  3182 PWs)   bands (ev):

   -45.2033 -21.9416 -21.8864 -21.8002  -6.5236  -5.7820  -5.5954  -4.5325
    -4.5319  -4.5288  -4.3409  -4.1581   2.9937   5.9022   6.6012   7.2179
     7.6392   7.7034   8.0730   8.7530   9.6065  10.1686

          k = 0.0000-0.5000-0.4761 (  3176 PWs)   bands (ev):

   -45.2031 -21.9532 -21.8857 -21.7997  -6.5209  -5.7390  -5.4993  -4.5417
    -4.5329  -4.5057  -4.3715  -4.1039   2.8599   5.7920   6.3367   7.2770
     7.6235   7.7537   7.7850   8.7360   9.6627  10.0982

          k = 0.1667 0.1667 0.0000 (  3197 PWs)   bands (ev):

   -45.2050 -21.9087 -21.8253 -21.8248  -6.9280  -6.0114  -5.8154  -4.5386
    -4.5235  -4.4913  -4.3368  -4.2334   3.9404   6.6996   6.8952   7.1810
     8.1183   8.2552   8.9829   9.0114   9.3110   9.7096

          k = 0.1667 0.1667 0.1587 (  3191 PWs)   bands (ev):

   -45.2048 -21.9206 -21.8247 -21.8243  -6.8385  -5.9983  -5.7789  -4.5337
    -4.5298  -4.4885  -4.3304  -4.2402   3.7366   6.5990   6.6367   7.3883
     7.9854   8.1730   8.7921   9.1316   9.3579   9.6782

          k = 0.1667 0.1667 0.3174 (  3191 PWs)   bands (ev):

   -45.2043 -21.9441 -21.8237 -21.8234  -6.6597  -5.9720  -5.6979  -4.5500
    -4.5079  -4.4767  -4.3269  -4.2585   3.3521   6.3904   6.4883   7.0957
     7.8623   7.9114   8.7098   9.2377   9.4426   9.9783

          k = 0.1667 0.1667-0.4761 (  3204 PWs)   bands (ev):

   -45.2041 -21.9559 -21.8232 -21.8230  -6.5714  -5.9588  -5.6515  -4.5558
    -4.4997  -4.4595  -4.3331  -4.2702   3.1748   6.2871   6.3030   6.9684
     7.8338   7.9120   8.6384   9.2674   9.4727  10.1550

          k = 0.1667 0.3333 0.0000 (  3201 PWs)   bands (ev):

   -45.2040 -21.9070 -21.8666 -21.8232  -6.6250  -5.9326  -5.8074  -4.5617
    -4.5130  -4.4775  -4.3143  -4.2368   3.4422   6.3671   6.9354   7.1837
     7.6133   8.1388   8.4643   9.1696   9.3431  10.2041

          k = 0.1667 0.3333 0.1587 (  3208 PWs)   bands (ev):

   -45.2038 -21.9186 -21.8660 -21.8228  -6.5569  -5.9296  -5.7709  -4.5480
    -4.5165  -4.4663  -4.2989  -4.2192   3.3742   6.3008   6.4977   7.0497
     7.5647   8.1190   8.6249   9.1224   9.3528  10.0584

          k = 0.1667 0.3333 0.3174 (  3204 PWs)   bands (ev):

   -45.2033 -21.9419 -21.8649 -21.8218  -6.4485  -5.9112  -5.6713  -4.5370
    -4.5017  -4.4371  -4.2953  -4.1680   3.1995   6.0538   6.2629   6.7821
     6.9949   7.8865   8.9124   9.1358   9.5414   9.8155

          k = 0.1667 0.3333-0.4761 (  3212 PWs)   bands (ev):

   -45.2031 -21.9535 -21.8643 -21.8213  -6.4109  -5.8960  -5.6048  -4.5372
    -4.4882  -4.4114  -4.3071  -4.1397   3.0983   5.8614   6.2705   6.5856
     6.7975   7.8470   8.9102   9.1754   9.4067   9.8970

          k = 0.1667-0.5000 0.0000 (  3212 PWs)   bands (ev):

   -45.2035 -21.9058 -21.8874 -21.8223  -6.4622  -5.8696  -5.8327  -4.5643
    -4.5053  -4.4580  -4.3007  -4.2638   3.2476   5.9778   7.0127   7.3118
     7.5208   7.8703   8.3206   9.2201   9.3362  10.5352

          k = 0.1667-0.5000 0.1587 (  3202 PWs)   bands (ev):

   -45.2033 -21.9175 -21.8867 -21.8219  -6.4195  -5.8516  -5.8018  -4.5479
    -4.5065  -4.4449  -4.2655  -4.2448   3.2186   5.9689   6.4262   6.9615
     7.5554   8.2535   8.2797   9.1656   9.3411  10.1838

          k = 0.1667-0.5000 0.3174 (  3206 PWs)   bands (ev):

   -45.2029 -21.9407 -21.8854 -21.8209  -6.3817  -5.8167  -5.6755  -4.5325
    -4.4810  -4.4239  -4.2770  -4.1322   3.1235   5.8870   6.1108   6.3817
     6.9934   7.9999   8.7509   9.1137   9.3474   9.8928

          k = 0.1667-0.5000-0.4761 (  3188 PWs)   bands (ev):

   -45.2026 -21.9522 -21.8848 -21.8204  -6.3813  -5.7997  -5.5859  -4.5313
    -4.4543  -4.4125  -4.2890  -4.0779   3.0587   5.7415   6.0955   6.2159
     6.6857   7.9476   8.7661   9.0737   9.1039  10.1077

          k = 0.3333 0.3333 0.0000 (  3225 PWs)   bands (ev):

   -45.2031 -21.9051 -21.8646 -21.8643  -6.3659  -5.8593  -5.8441  -4.5410
    -4.4956  -4.4086  -4.2408  -4.2380   3.0466   6.3568   6.4504   7.3175
     7.4367   7.5872   8.2579   8.9560   9.8404   9.9351

          k = 0.3333 0.3333 0.1587 (  3212 PWs)   bands (ev):

   -45.2028 -21.9167 -21.8641 -21.8638  -6.2872  -5.8851  -5.8344  -4.5204
    -4.4919  -4.3775  -4.2150  -4.1990   3.1409   6.2301   6.2429   6.4445
     7.0714   7.8794   8.8451   9.0098   9.5704   9.8464

          k = 0.3333 0.3333 0.3174 (  3196 PWs)   bands (ev):

   -45.2024 -21.9399 -21.8630 -21.8628  -6.1770  -5.9337  -5.7582  -4.4846
    -4.4786  -4.3167  -4.1645  -4.1175   3.3204   5.6556   5.7353   6.2887
     6.8748   7.0336   8.5082   9.6286   9.6996   9.8737

          k = 0.3333 0.3333-0.4761 (  3198 PWs)   bands (ev):

   -45.2022 -21.9514 -21.8625 -21.8623  -6.1512  -5.9567  -5.6861  -4.4810
    -4.4582  -4.2828  -4.1394  -4.0776   3.3935   5.5043   5.5211   6.1401
     6.6960   6.8485   8.0881   9.7926   9.8299   9.9756

          k = 0.3333-0.5000 0.0000 (  3218 PWs)   bands (ev):

   -45.2026 -21.9040 -21.8851 -21.8634  -6.2567  -5.8470  -5.8104  -4.5326
    -4.4724  -4.3488  -4.2717  -4.2057   2.8647   5.9780   6.4914   7.1282
     7.6511   7.7421   7.8626   8.9389   9.6158  10.0436

          k = 0.3333-0.5000 0.1587 (  3216 PWs)   bands (ev):

   -45.2024 -21.9156 -21.8846 -21.8630  -6.1711  -5.8685  -5.8355  -4.5111
    -4.4661  -4.2970  -4.2287  -4.1733   3.0079   5.9683   6.2221   6.3036
     6.8879   8.0076   8.6094   9.0814   9.1970  10.0197

          k = 0.3333-0.5000 0.3174 (  3202 PWs)   bands (ev):

   -45.2019 -21.9387 -21.8834 -21.8620  -6.0883  -5.8828  -5.8078  -4.4729
    -4.4509  -4.2264  -4.1416  -4.0772   3.3442   5.4591   5.6895   5.9405
     6.6378   7.1042   7.8763   9.7051   9.7776  10.0206

          k = 0.3333-0.5000-0.4761 (  3204 PWs)   bands (ev):

   -45.2017 -21.9502 -21.8829 -21.8615  -6.0965  -5.9052  -5.7214  -4.4627
    -4.4349  -4.1976  -4.0978  -4.0216   3.5429   5.2275   5.4198   5.8794
     6.4693   6.8537   7.3180   9.8982   9.9864  10.1303

          k =-0.5000-0.5000 0.0000 (  3224 PWs)   bands (ev):

   -45.2021 -21.9028 -21.8840 -21.8840  -6.2130  -5.7835  -5.7835  -4.5217
    -4.4251  -4.2966  -4.2966  -4.1566   2.6767   5.8310   6.2829   7.3528
     7.3528   7.8564   7.8564   8.7056   9.1284  10.3060

          k =-0.5000-0.5000 0.1587 (  3220 PWs)   bands (ev):

   -45.2019 -21.9145 -21.8835 -21.8835  -6.1068  -5.8306  -5.8306  -4.4998
    -4.4240  -4.2193  -4.2193  -4.1415   2.8693   5.8182   6.2861   6.3713
     6.3713   8.0374   8.4111   8.9071   8.9071  10.2972

          k =-0.5000-0.5000 0.3174 (  3212 PWs)   bands (ev):

   -45.2014 -21.9376 -21.8824 -21.8824  -5.9143  -5.9143  -5.8892  -4.4560
    -4.4219  -4.1043  -4.0732  -4.0732   3.3856   5.5355   5.5355   5.7699
     6.2926   6.9802   7.0630   9.8303   9.8303  10.2796

          k =-0.5000-0.5000-0.4761 (  3240 PWs)   bands (ev):

   -45.2012 -21.9491 -21.8820 -21.8820  -5.9520  -5.9520  -5.7780  -4.4340
    -4.4208  -4.0809  -4.0032  -4.0032   3.7890   5.2330   5.2330   5.7127
     6.2958   6.3101   6.5560  10.1422  10.1422  10.2708

     highest occupied level (ev):    10.9242

!    total energy              =    -333.76329851 Ry
     estimated scf accuracy    <          5.7E-10 Ry

     The total energy is the sum of the following terms:
     one-electron contribution =     -86.80000018 Ry
     hartree contribution      =      70.40342415 Ry
     xc contribution           =     -49.68091163 Ry
     ewald contribution        =    -267.68581086 Ry

     convergence has been achieved in  19 iterations

     Writing all to output data dir ./tmp_pzt/pzt.save/ :
     XML data file, charge density, pseudopotentials, collected wavefunctions

     init_run     :      2.71s CPU      2.92s WALL (       1 calls)
     electrons    :     62.21s CPU     64.34s WALL (       1 calls)

     Called by init_run:
     wfcinit      :      1.36s CPU      1.38s WALL (       1 calls)
     potinit      :      0.32s CPU      0.35s WALL (       1 calls)
     hinit0       :      0.73s CPU      0.77s WALL (       1 calls)

     Called by electrons:
     c_bands      :     44.03s CPU     44.31s WALL (      19 calls)
     sum_band     :     12.45s CPU     13.37s WALL (      19 calls)
     v_of_rho     :      0.16s CPU      0.17s WALL (      20 calls)
     newd         :      5.71s CPU      6.70s WALL (      20 calls)
     mix_rho      :      0.10s CPU      0.10s WALL (      19 calls)

     Called by c_bands:
     init_us_2    :      1.71s CPU      1.74s WALL (    1560 calls)
     cegterg      :     39.96s CPU     40.20s WALL (     760 calls)

     Called by *egterg:
     cdiaghg      :      1.37s CPU      1.39s WALL (    3487 calls)
     h_psi        :     30.86s CPU     31.06s WALL (    3527 calls)
     s_psi        :      1.89s CPU      1.91s WALL (    3527 calls)
     g_psi        :      0.33s CPU      0.34s WALL (    2727 calls)

     Called by h_psi:
     h_psi:calbec :      2.36s CPU      2.37s WALL (    3527 calls)
     vloc_psi     :     26.30s CPU     26.46s WALL (    3527 calls)
     add_vuspsi   :      1.99s CPU      2.00s WALL (    3527 calls)

     General routines
     calbec       :      3.08s CPU      3.11s WALL (    4287 calls)
     fft          :      0.32s CPU      0.33s WALL (     117 calls)
     ffts         :      0.27s CPU      0.27s WALL (      39 calls)
     fftw         :     23.78s CPU     23.94s WALL (  107172 calls)
     interpolate  :      0.29s CPU      0.29s WALL (      20 calls)

     Parallel routines

     PWSCF        :   1m 5.06s CPU   1m 7.56s WALL


   This run was terminated on:  19:32:34  13Nov2025            

=------------------------------------------------------------------------------=
   JOB DONE.
=------------------------------------------------------------------------------=
