
     Program PWSCF v.7.4.1 starts on 13Nov2025 at 19:30:33 

     This program is part of the open-source Quantum ESPRESSO suite
     for quantum simulation of materials; please cite
         "P. Giannozzi et al., J. Phys.:Condens. Matter 21 395502 (2009);
         "P. Giannozzi et al., J. Phys.:Condens. Matter 29 465901 (2017);
         "P. Giannozzi et al., J. Chem. Phys. 152 154105 (2020);
          URL http://www.quantum-espresso.org", 
     in publications or presentations arising from this work. More details at
     http://www.quantum-espresso.org/quote

     Parallel version (MPI), running on     1 processors

     MPI processes distributed on     1 nodes
     4106 MiB available memory on the printing compute node when the environment starts

     Reading input from pzt/scf/pzt_scf_nk4.in

     Current dimensions of program PWSCF are:
     Max number of different atomic species (ntypx) = 10
     Max number of k-points (npk) =  40000
     Max angular momentum in pseudopotentials (lmaxx) =  4

     IMPORTANT: XC functional enforced from input :
     Exchange-correlation= LDA
                           (   1   1   0   0   0   0   0)
     Any further DFT definition will be discarded
     Please, verify this is what you really want

     Message from routine setup:
     using ibrav=0 with symmetry is DISCOURAGED, use correct ibrav instead

     Subspace diagonalization in iterative solution of the eigenvalue problem:
     a serial algorithm will be used


     G-vector sticks info
     --------------------
     sticks:   dense  smooth     PW     G-vecs:    dense   smooth      PW
     Sum        2025    1005    293                72333    25625    4177

     Using Slab Decomposition



     bravais-lattice index     =            0
     lattice parameter (alat)  =       7.2956  a.u.
     unit-cell volume          =     407.8422 (a.u.)^3
     number of atoms/cell      =            5
     number of atomic types    =            3
     number of electrons       =        44.00
     number of Kohn-Sham states=           22
     kinetic-energy cutoff     =      60.0000  Ry
     charge density cutoff     =     480.0000  Ry
     scf convergence threshold =      1.0E-08
     mixing beta               =       0.3000
     number of iterations used =            8  plain     mixing
     Exchange-correlation= LDA
                           (   1   1   0   0   0   0   0)

     celldm(1)=   7.295621  celldm(2)=   0.000000  celldm(3)=   0.000000
     celldm(4)=   0.000000  celldm(5)=   0.000000  celldm(6)=   0.000000

     crystal axes: (cart. coord. in units of alat)
               a(1) = (   1.000000   0.000000   0.000000 )  
               a(2) = (   0.000000   1.000000   0.000000 )  
               a(3) = (   0.000000   0.000000   1.050281 )  

     reciprocal axes: (cart. coord. in units 2 pi/alat)
               b(1) = (  1.000000  0.000000  0.000000 )  
               b(2) = (  0.000000  1.000000  0.000000 )  
               b(3) = (  0.000000  0.000000  0.952127 )  


     PseudoPot. # 1 for Pb read from file:
     ./pseudos/Pb.pz-d-van.UPF
     MD5 check sum: 7d60cbfc971891b50292ee40cb29912a
     Pseudo is Ultrasoft, Zval = 14.0
     Generated by new atomic code, or converted to UPF format
     Using radial grid of  899 points,  6 beta functions with: 
                l(1) =   0
                l(2) =   0
                l(3) =   1
                l(4) =   1
                l(5) =   2
                l(6) =   2
     Q(r) pseudized with  8 coefficients,  rinner =    1.000   1.000   1.000
                                                       1.000   1.000

     PseudoPot. # 2 for Ti read from file:
     ./pseudos/Ti.pz-sp-van_ak.UPF
     MD5 check sum: 93c5ef60b250b0ab110b997ad8a4342c
     Pseudo is Ultrasoft, Zval = 12.0
     Generated by new atomic code, or converted to UPF format
     Using radial grid of  851 points,  6 beta functions with: 
                l(1) =   0
                l(2) =   0
                l(3) =   1
                l(4) =   1
                l(5) =   2
                l(6) =   2
     Q(r) pseudized with  8 coefficients,  rinner =    1.000   1.000   1.000
                                                       1.000   1.000

     PseudoPot. # 3 for O  read from file:
     ./pseudos/O.pz-van_ak.UPF
     MD5 check sum: b77f3d8cfe972ebbeca95ec6abb46c7c
     Pseudo is Ultrasoft, Zval =  6.0
     Generated by new atomic code, or converted to UPF format
     Using radial grid of  737 points,  4 beta functions with: 
                l(1) =   0
                l(2) =   0
                l(3) =   1
                l(4) =   1
     Q(r) pseudized with  8 coefficients,  rinner =    0.800   0.800   0.800


     atomic species   valence    mass     pseudopotential
     Pb               14.00   207.20000     Pb( 1.00)
     Ti               12.00    47.86700     Ti( 1.00)
     O                 6.00    15.99900     O ( 1.00)

      8 Sym. Ops. (no inversion) found



   Cartesian axes

     site n.     atom                  positions (alat units)
         1        Pb     tau(   1) = (   0.0000000   0.0000000  -0.0005884  )
         2        Ti     tau(   2) = (   0.5000000   0.5000000   0.5645672  )
         3        O      tau(   3) = (   0.5000000   0.5000000   0.1057338  )
         4        O      tau(   4) = (   0.5000000   0.0000000   0.6314019  )
         5        O      tau(   5) = (   0.0000000   0.5000000   0.6314019  )

     number of k points=    18
                       cart. coord. in units 2pi/alat
        k(    1) = (   0.0000000   0.0000000   0.0000000), wk =   0.0312500
        k(    2) = (   0.0000000   0.0000000   0.2380316), wk =   0.0625000
        k(    3) = (   0.0000000   0.0000000  -0.4760633), wk =   0.0312500
        k(    4) = (   0.0000000   0.2500000   0.0000000), wk =   0.1250000
        k(    5) = (   0.0000000   0.2500000   0.2380316), wk =   0.2500000
        k(    6) = (   0.0000000   0.2500000  -0.4760633), wk =   0.1250000
        k(    7) = (   0.0000000  -0.5000000   0.0000000), wk =   0.0625000
        k(    8) = (   0.0000000  -0.5000000   0.2380316), wk =   0.1250000
        k(    9) = (   0.0000000  -0.5000000  -0.4760633), wk =   0.0625000
        k(   10) = (   0.2500000   0.2500000   0.0000000), wk =   0.1250000
        k(   11) = (   0.2500000   0.2500000   0.2380316), wk =   0.2500000
        k(   12) = (   0.2500000   0.2500000  -0.4760633), wk =   0.1250000
        k(   13) = (   0.2500000  -0.5000000   0.0000000), wk =   0.1250000
        k(   14) = (   0.2500000  -0.5000000   0.2380316), wk =   0.2500000
        k(   15) = (   0.2500000  -0.5000000  -0.4760633), wk =   0.1250000
        k(   16) = (  -0.5000000  -0.5000000   0.0000000), wk =   0.0312500
        k(   17) = (  -0.5000000  -0.5000000   0.2380316), wk =   0.0625000
        k(   18) = (  -0.5000000  -0.5000000  -0.4760633), wk =   0.0312500

     Dense  grid:    72333 G-vectors     FFT dimensions: (  54,  54,  54)

     Smooth grid:    25625 G-vectors     FFT dimensions: (  36,  36,  40)

     Estimated max dynamical RAM per process >     282.17 MB

     Initial potential from superposition of free atoms

     starting charge      42.9982, renormalised to      44.0000
     Starting wfcs are   31 randomized atomic wfcs

     total cpu time spent up to now is        2.4 secs

     Self-consistent Calculation

     iteration #  1     ecut=    60.00 Ry     beta= 0.30
     Davidson diagonalization with overlap
     ethr =  1.00E-02,  avg # of iterations =  2.0

     total cpu time spent up to now is        4.2 secs

     total energy              =    -333.59690916 Ry
     estimated scf accuracy    <       1.00752102 Ry

     iteration #  2     ecut=    60.00 Ry     beta= 0.30
     Davidson diagonalization with overlap
     ethr =  2.29E-03,  avg # of iterations =  3.3

     total cpu time spent up to now is        6.2 secs

     total energy              =    -333.74109660 Ry
     estimated scf accuracy    <       0.10387679 Ry

     iteration #  3     ecut=    60.00 Ry     beta= 0.30
     Davidson diagonalization with overlap
     ethr =  2.36E-04,  avg # of iterations =  4.4

     total cpu time spent up to now is        9.2 secs

     total energy              =    -333.74732635 Ry
     estimated scf accuracy    <       0.10614819 Ry

     iteration #  4     ecut=    60.00 Ry     beta= 0.30
     Davidson diagonalization with overlap
     ethr =  2.36E-04,  avg # of iterations =  4.5

     total cpu time spent up to now is       12.8 secs

     total energy              =    -333.76584161 Ry
     estimated scf accuracy    <       0.01321139 Ry

     iteration #  5     ecut=    60.00 Ry     beta= 0.30
     Davidson diagonalization with overlap
     ethr =  3.00E-05,  avg # of iterations =  6.1

     total cpu time spent up to now is       17.3 secs

     total energy              =    -333.76372609 Ry
     estimated scf accuracy    <       0.11237229 Ry

     iteration #  6     ecut=    60.00 Ry     beta= 0.30
     Davidson diagonalization with overlap
     ethr =  3.00E-05,  avg # of iterations =  4.3

     total cpu time spent up to now is       21.7 secs

     total energy              =    -333.75494457 Ry
     estimated scf accuracy    <       0.03176967 Ry

     iteration #  7     ecut=    60.00 Ry     beta= 0.30
     Davidson diagonalization with overlap
     ethr =  3.00E-05,  avg # of iterations =  5.7

     total cpu time spent up to now is       24.3 secs

     total energy              =    -333.76296529 Ry
     estimated scf accuracy    <       0.00262645 Ry

     iteration #  8     ecut=    60.00 Ry     beta= 0.30
     Davidson diagonalization with overlap
     ethr =  5.97E-06,  avg # of iterations =  1.3

     total cpu time spent up to now is       26.0 secs

     total energy              =    -333.76225408 Ry
     estimated scf accuracy    <       0.00172223 Ry

     iteration #  9     ecut=    60.00 Ry     beta= 0.30
     Davidson diagonalization with overlap
     ethr =  3.91E-06,  avg # of iterations =  5.0

     total cpu time spent up to now is       28.1 secs

     total energy              =    -333.76293392 Ry
     estimated scf accuracy    <       0.00044579 Ry

     iteration # 10     ecut=    60.00 Ry     beta= 0.30
     Davidson diagonalization with overlap
     ethr =  1.01E-06,  avg # of iterations =  1.4

     total cpu time spent up to now is       29.8 secs

     total energy              =    -333.76288821 Ry
     estimated scf accuracy    <       0.00034034 Ry

     iteration # 11     ecut=    60.00 Ry     beta= 0.30
     Davidson diagonalization with overlap
     ethr =  7.73E-07,  avg # of iterations =  1.7

     total cpu time spent up to now is       31.5 secs

     total energy              =    -333.76284301 Ry
     estimated scf accuracy    <       0.00018280 Ry

     iteration # 12     ecut=    60.00 Ry     beta= 0.30
     Davidson diagonalization with overlap
     ethr =  4.15E-07,  avg # of iterations =  4.4

     total cpu time spent up to now is       33.5 secs

     total energy              =    -333.76287618 Ry
     estimated scf accuracy    <       0.00000153 Ry

     iteration # 13     ecut=    60.00 Ry     beta= 0.30
     Davidson diagonalization with overlap
     ethr =  3.47E-09,  avg # of iterations =  7.3

     total cpu time spent up to now is       36.2 secs

     total energy              =    -333.76287853 Ry
     estimated scf accuracy    <       0.00001074 Ry

     iteration # 14     ecut=    60.00 Ry     beta= 0.30
     Davidson diagonalization with overlap
     ethr =  3.47E-09,  avg # of iterations =  5.9

     total cpu time spent up to now is       38.7 secs

     total energy              =    -333.76288027 Ry
     estimated scf accuracy    <       0.00000032 Ry

     iteration # 15     ecut=    60.00 Ry     beta= 0.30
     Davidson diagonalization with overlap
     ethr =  7.29E-10,  avg # of iterations =  7.1

     total cpu time spent up to now is       41.3 secs

     total energy              =    -333.76287964 Ry
     estimated scf accuracy    <       0.00000413 Ry

     iteration # 16     ecut=    60.00 Ry     beta= 0.30
     Davidson diagonalization with overlap
     ethr =  7.29E-10,  avg # of iterations =  6.2

     total cpu time spent up to now is       43.8 secs

     total energy              =    -333.76287991 Ry
     estimated scf accuracy    <       0.00000022 Ry

     iteration # 17     ecut=    60.00 Ry     beta= 0.30
     Davidson diagonalization with overlap
     ethr =  5.00E-10,  avg # of iterations =  4.6

     total cpu time spent up to now is       46.1 secs

     total energy              =    -333.76287995 Ry
     estimated scf accuracy    <       0.00000014 Ry

     iteration # 18     ecut=    60.00 Ry     beta= 0.30
     Davidson diagonalization with overlap
     ethr =  3.16E-10,  avg # of iterations =  4.9

     total cpu time spent up to now is       48.3 secs

     total energy              =    -333.76288001 Ry
     estimated scf accuracy    <       0.00000007 Ry

     iteration # 19     ecut=    60.00 Ry     beta= 0.30
     Davidson diagonalization with overlap
     ethr =  1.49E-10,  avg # of iterations =  1.0

     total cpu time spent up to now is       50.0 secs

     total energy              =    -333.76288000 Ry
     estimated scf accuracy    <       0.00000006 Ry

     iteration # 20     ecut=    60.00 Ry     beta= 0.30
     Davidson diagonalization with overlap
     ethr =  1.41E-10,  avg # of iterations =  1.0

     total cpu time spent up to now is       51.6 secs

     total energy              =    -333.76287999 Ry
     estimated scf accuracy    <       0.00000004 Ry

     iteration # 21     ecut=    60.00 Ry     beta= 0.30
     Davidson diagonalization with overlap
     ethr =  9.79E-11,  avg # of iterations =  3.9

     total cpu time spent up to now is       53.5 secs

     End of self-consistent calculation

          k = 0.0000 0.0000 0.0000 (  3155 PWs)   bands (ev):

   -45.2056 -21.9086 -21.8051 -21.8051  -7.2133  -6.0865  -5.8510  -4.5093
    -4.5093  -4.4750  -4.3577  -4.2563   4.7177   6.7144   6.7144   7.0895
     8.6594   8.6594   8.9375   9.2004   9.4158   9.4158

          k = 0.0000 0.0000 0.2380 (  3187 PWs)   bands (ev):

   -45.2051 -21.9326 -21.8043 -21.8043  -7.0078  -6.0241  -5.7799  -4.5269
    -4.5269  -4.4735  -4.3465  -4.3335   3.8758   6.7971   6.7971   7.2707
     8.3681   8.3681   8.8536   9.2903   9.5201   9.5201

          k = 0.0000 0.0000-0.4761 (  3202 PWs)   bands (ev):

   -45.2046 -21.9563 -21.8034 -21.8034  -6.7847  -5.9557  -5.7150  -4.5442
    -4.5442  -4.4720  -4.4170  -4.3369   3.3358   6.5737   6.8671   6.8671
     8.1610   8.1610   8.7736   9.5924   9.5924  10.5692

          k = 0.0000 0.2500 0.0000 (  3184 PWs)   bands (ev):

   -45.2046 -21.9069 -21.8471 -21.8035  -6.9174  -6.0113  -5.7924  -4.5539
    -4.5066  -4.5032  -4.3597  -4.2407   3.9206   6.6924   6.9442   6.9453
     8.5262   8.5802   8.8328   8.8545   9.1757   9.6434

          k = 0.0000 0.2500 0.2380 (  3191 PWs)   bands (ev):

   -45.2041 -21.9305 -21.8459 -21.8026  -6.7544  -5.9735  -5.7061  -4.5349
    -4.5250  -4.5032  -4.3575  -4.2462   3.4587   6.4253   7.0491   7.1300
     7.9792   8.3003   8.3111   8.9439   9.2936  10.0311

          k = 0.0000 0.2500-0.4761 (  3182 PWs)   bands (ev):

   -45.2037 -21.9539 -21.8448 -21.8017  -6.6044  -5.9182  -5.6061  -4.5435
    -4.5127  -4.5030  -4.3767  -4.2383   3.0765   6.0778   6.9230   7.1293
     7.6380   8.1377   8.1980   9.0029   9.5261  10.2538

          k = 0.0000-0.5000 0.0000 (  3226 PWs)   bands (ev):

   -45.2036 -21.9049 -21.8887 -21.8019  -6.5887  -5.9015  -5.7797  -4.5852
    -4.5318  -4.5031  -4.3360  -4.2717   3.4388   5.9589   7.2238   7.3226
     7.7753   7.9524   8.7076   8.8389   9.2637  10.9272

          k = 0.0000-0.5000 0.2380 (  3198 PWs)   bands (ev):

   -45.2032 -21.9282 -21.8873 -21.8009  -6.5343  -5.8232  -5.6697  -4.5496
    -4.5327  -4.5230  -4.3157  -4.2153   3.1344   5.9418   6.9550   7.1864
     7.5296   7.7878   8.4033   8.7770   9.3615  10.4042

          k = 0.0000-0.5000-0.4761 (  3176 PWs)   bands (ev):

   -45.2027 -21.9513 -21.8859 -21.7999  -6.5210  -5.7390  -5.4920  -4.5427
    -4.5335  -4.5066  -4.3723  -4.1046   2.8602   5.7944   6.3387   7.2774
     7.6269   7.7538   7.7865   8.7382   9.6636  10.1020

          k = 0.2500 0.2500 0.0000 (  3199 PWs)   bands (ev):

   -45.2036 -21.9052 -21.8454 -21.8448  -6.6351  -5.9355  -5.8153  -4.5521
    -4.5213  -4.4709  -4.2961  -4.2281   3.4448   6.6018   6.8413   7.1417
     7.6236   7.8210   8.6878   9.0625   9.4854  10.0652

          k = 0.2500 0.2500 0.2380 (  3206 PWs)   bands (ev):

   -45.2032 -21.9286 -21.8443 -21.8439  -6.4836  -5.9471  -5.7435  -4.5278
    -4.5206  -4.4413  -4.2702  -4.1941   3.3537   6.2131   6.2350   6.8903
     7.4585   7.5592   9.0259   9.3253   9.5631   9.7143

          k = 0.2500 0.2500-0.4761 (  3212 PWs)   bands (ev):

   -45.2027 -21.9518 -21.8432 -21.8429  -6.3590  -5.9591  -5.6328  -4.5281
    -4.4924  -4.3872  -4.2612  -4.1659   3.1953   5.8533   6.1150   6.4165
     7.1786   7.3763   9.0392   9.4859   9.4879   9.7515

          k = 0.2500-0.5000 0.0000 (  3224 PWs)   bands (ev):

   -45.2027 -21.9031 -21.8865 -21.8432  -6.3421  -5.8552  -5.8392  -4.5472
    -4.4979  -4.3999  -4.2642  -4.2562   3.0551   5.9919   6.8664   7.0224
     7.6329   7.8645   7.9738   9.1704   9.6108  10.1489

          k = 0.2500-0.5000 0.2380 (  3204 PWs)   bands (ev):

   -45.2022 -21.9263 -21.8853 -21.8422  -6.2491  -5.8462  -5.8054  -4.5132
    -4.4842  -4.3450  -4.2273  -4.1589   3.1912   5.8864   5.9486   6.3009
     7.0841   7.7098   8.7522   9.3615   9.4873   9.7290

          k = 0.2500-0.5000-0.4761 (  3200 PWs)   bands (ev):

   -45.2018 -21.9494 -21.8840 -21.8412  -6.2398  -5.8547  -5.6523  -4.5000
    -4.4424  -4.3028  -4.1941  -4.0503   3.2861   5.5649   5.6222   6.0141
     6.5292   7.3763   8.0987   9.5593   9.5942  10.1224

          k =-0.5000-0.5000 0.0000 (  3224 PWs)   bands (ev):

   -45.2017 -21.9010 -21.8842 -21.8842  -6.2071  -5.7836  -5.7836  -4.5227
    -4.4258  -4.2974  -4.2974  -4.1558   2.6762   5.8312   6.2826   7.3577
     7.3577   7.8564   7.8564   8.7128   9.1281  10.3066

          k =-0.5000-0.5000 0.2380 (  3208 PWs)   bands (ev):

   -45.2013 -21.9242 -21.8832 -21.8832  -5.9931  -5.8741  -5.8741  -4.4789
    -4.4237  -4.1458  -4.1458  -4.1231   3.0978   5.8001   5.8989   5.8989
     6.2890   7.4789   7.7386   9.4385   9.4385  10.2889

          k =-0.5000-0.5000-0.4761 (  3240 PWs)   bands (ev):

   -45.2008 -21.9473 -21.8822 -21.8822  -5.9522  -5.9522  -5.7726  -4.4351
    -4.4216  -4.0795  -4.0039  -4.0039   3.7886   5.2351   5.2351   5.7139
     6.2955   6.3095   6.5608  10.1459  10.1459  10.2713

     highest occupied level (ev):    10.9272

!    total energy              =    -333.76287999 Ry
     estimated scf accuracy    <          5.3E-09 Ry

     The total energy is the sum of the following terms:
     one-electron contribution =     -86.80206008 Ry
     hartree contribution      =      70.40668915 Ry
     xc contribution           =     -49.68169821 Ry
     ewald contribution        =    -267.68581086 Ry

     convergence has been achieved in  21 iterations

     Writing all to output data dir ./tmp_pzt/pzt.save/ :
     XML data file, charge density, pseudopotentials, collected wavefunctions

     init_run     :      2.07s CPU      2.33s WALL (       1 calls)
     electrons    :     46.91s CPU     51.03s WALL (       1 calls)

     Called by init_run:
     wfcinit      :      0.71s CPU      0.79s WALL (       1 calls)
     potinit      :      0.33s CPU      0.35s WALL (       1 calls)
     hinit0       :      0.70s CPU      0.71s WALL (       1 calls)

     Called by electrons:
     c_bands      :     28.49s CPU     28.76s WALL (      21 calls)
     sum_band     :     11.31s CPU     13.37s WALL (      21 calls)
     v_of_rho     :      0.19s CPU      0.21s WALL (      22 calls)
     newd         :      7.03s CPU      8.94s WALL (      22 calls)
     mix_rho      :      0.13s CPU      0.13s WALL (      21 calls)

     Called by c_bands:
     init_us_2    :      0.96s CPU      0.97s WALL (     774 calls)
     cegterg      :     26.19s CPU     26.45s WALL (     378 calls)

     Called by *egterg:
     cdiaghg      :      0.89s CPU      0.90s WALL (    1925 calls)
     h_psi        :     20.00s CPU     20.26s WALL (    1943 calls)
     s_psi        :      1.21s CPU      1.23s WALL (    1943 calls)
     g_psi        :      0.22s CPU      0.23s WALL (    1547 calls)

     Called by h_psi:
     h_psi:calbec :      1.55s CPU      1.57s WALL (    1943 calls)
     vloc_psi     :     17.03s CPU     17.21s WALL (    1943 calls)
     add_vuspsi   :      1.27s CPU      1.29s WALL (    1943 calls)

     General routines
     calbec       :      1.95s CPU      1.98s WALL (    2321 calls)
     fft          :      0.34s CPU      0.34s WALL (     129 calls)
     ffts         :      0.27s CPU      0.27s WALL (      43 calls)
     fftw         :     15.13s CPU     15.28s WALL (   59294 calls)
     interpolate  :      0.30s CPU      0.30s WALL (      22 calls)

     Parallel routines

     PWSCF        :     49.08s CPU     53.63s WALL


   This run was terminated on:  19:31:27  13Nov2025            

=------------------------------------------------------------------------------=
   JOB DONE.
=------------------------------------------------------------------------------=
