
     Program PWSCF v.7.4.1 starts on 12Nov2025 at 21:40:32 

     This program is part of the open-source Quantum ESPRESSO suite
     for quantum simulation of materials; please cite
         "P. Giannozzi et al., J. Phys.:Condens. Matter 21 395502 (2009);
         "P. Giannozzi et al., J. Phys.:Condens. Matter 29 465901 (2017);
         "P. Giannozzi et al., J. Chem. Phys. 152 154105 (2020);
          URL http://www.quantum-espresso.org", 
     in publications or presentations arising from this work. More details at
     http://www.quantum-espresso.org/quote

     Parallel version (MPI), running on     4 processors

     MPI processes distributed on     1 nodes
     4945 MiB available memory on the printing compute node when the environment starts

     Reading input from pzt/scf/pzt_relax.in

     Current dimensions of program PWSCF are:
     Max number of different atomic species (ntypx) = 10
     Max number of k-points (npk) =  40000
     Max angular momentum in pseudopotentials (lmaxx) =  4

     IMPORTANT: XC functional enforced from input :
     Exchange-correlation= LDA
                           (   1   1   0   0   0   0   0)
     Any further DFT definition will be discarded
     Please, verify this is what you really want

     Message from routine setup:
     using ibrav=0 with symmetry is DISCOURAGED, use correct ibrav instead

     R & G space division:  proc/nbgrp/npool/nimage =       4
     Subspace diagonalization in iterative solution of the eigenvalue problem:
     a serial algorithm will be used


     Parallelization info
     --------------------
     sticks:   dense  smooth     PW     G-vecs:    dense   smooth      PW
     Min         519     260     75                18697     6592    1083
     Max         520     261     77                18700     6595    1084
     Sum        2077    1041    305                74795    26375    4333

     Using Slab Decomposition



     bravais-lattice index     =            0
     lattice parameter (alat)  =       7.3699  a.u.
     unit-cell volume          =     420.8329 (a.u.)^3
     number of atoms/cell      =            5
     number of atomic types    =            3
     number of electrons       =        44.00
     number of Kohn-Sham states=           22
     kinetic-energy cutoff     =      60.0000  Ry
     charge density cutoff     =     480.0000  Ry
     scf convergence threshold =      1.0E-08
     mixing beta               =       0.3000
     number of iterations used =            8  plain     mixing
     energy convergence thresh.=      1.0E-04
     force convergence thresh. =      1.0E-03
     press convergence thresh. =      5.0E-01
     Exchange-correlation= LDA
                           (   1   1   0   0   0   0   0)
     nstep                     =           50


     celldm(1)=   7.369932  celldm(2)=   0.000000  celldm(3)=   0.000000
     celldm(4)=   0.000000  celldm(5)=   0.000000  celldm(6)=   0.000000

     crystal axes: (cart. coord. in units of alat)
               a(1) = (   1.000000   0.000000   0.000000 )  
               a(2) = (   0.000000   1.000000   0.000000 )  
               a(3) = (   0.000000   0.000000   1.051282 )  

     reciprocal axes: (cart. coord. in units 2 pi/alat)
               b(1) = (  1.000000  0.000000  0.000000 )  
               b(2) = (  0.000000  1.000000  0.000000 )  
               b(3) = (  0.000000  0.000000  0.951220 )  


     PseudoPot. # 1 for Pb read from file:
     ./pseudos/Pb.pz-d-van.UPF
     MD5 check sum: 7d60cbfc971891b50292ee40cb29912a
     Pseudo is Ultrasoft, Zval = 14.0
     Generated by new atomic code, or converted to UPF format
     Using radial grid of  899 points,  6 beta functions with: 
                l(1) =   0
                l(2) =   0
                l(3) =   1
                l(4) =   1
                l(5) =   2
                l(6) =   2
     Q(r) pseudized with  8 coefficients,  rinner =    1.000   1.000   1.000
                                                       1.000   1.000

     PseudoPot. # 2 for Ti read from file:
     ./pseudos/Ti.pz-sp-van_ak.UPF
     MD5 check sum: 93c5ef60b250b0ab110b997ad8a4342c
     Pseudo is Ultrasoft, Zval = 12.0
     Generated by new atomic code, or converted to UPF format
     Using radial grid of  851 points,  6 beta functions with: 
                l(1) =   0
                l(2) =   0
                l(3) =   1
                l(4) =   1
                l(5) =   2
                l(6) =   2
     Q(r) pseudized with  8 coefficients,  rinner =    1.000   1.000   1.000
                                                       1.000   1.000

     PseudoPot. # 3 for O  read from file:
     ./pseudos/O.pz-van_ak.UPF
     MD5 check sum: b77f3d8cfe972ebbeca95ec6abb46c7c
     Pseudo is Ultrasoft, Zval =  6.0
     Generated by new atomic code, or converted to UPF format
     Using radial grid of  737 points,  4 beta functions with: 
                l(1) =   0
                l(2) =   0
                l(3) =   1
                l(4) =   1
     Q(r) pseudized with  8 coefficients,  rinner =    0.800   0.800   0.800


     atomic species   valence    mass     pseudopotential
     Pb               14.00   207.20000     Pb( 1.00)
     Ti               12.00    47.86700     Ti( 1.00)
     O                 6.00    15.99900     O ( 1.00)

      8 Sym. Ops. (no inversion) found



   Cartesian axes

     site n.     atom                  positions (alat units)
         1        Pb     tau(   1) = (   0.0000000   0.0000000   0.0000000  )
         2        Ti     tau(   2) = (   0.5000000   0.5000000   0.5676923  )
         3        O      tau(   3) = (   0.5000000   0.5000000   0.1051282  )
         4        O      tau(   4) = (   0.5000000   0.0000000   0.6307692  )
         5        O      tau(   5) = (   0.0000000   0.5000000   0.6307692  )

     number of k points=    40
                       cart. coord. in units 2pi/alat
        k(    1) = (   0.0000000   0.0000000   0.0000000), wk =   0.0092593
        k(    2) = (   0.0000000   0.0000000   0.1585366), wk =   0.0185185
        k(    3) = (   0.0000000   0.0000000   0.3170732), wk =   0.0185185
        k(    4) = (   0.0000000   0.0000000  -0.4756098), wk =   0.0092593
        k(    5) = (   0.0000000   0.1666667   0.0000000), wk =   0.0370370
        k(    6) = (   0.0000000   0.1666667   0.1585366), wk =   0.0740741
        k(    7) = (   0.0000000   0.1666667   0.3170732), wk =   0.0740741
        k(    8) = (   0.0000000   0.1666667  -0.4756098), wk =   0.0370370
        k(    9) = (   0.0000000   0.3333333   0.0000000), wk =   0.0370370
        k(   10) = (   0.0000000   0.3333333   0.1585366), wk =   0.0740741
        k(   11) = (   0.0000000   0.3333333   0.3170732), wk =   0.0740741
        k(   12) = (   0.0000000   0.3333333  -0.4756098), wk =   0.0370370
        k(   13) = (   0.0000000  -0.5000000   0.0000000), wk =   0.0185185
        k(   14) = (   0.0000000  -0.5000000   0.1585366), wk =   0.0370370
        k(   15) = (   0.0000000  -0.5000000   0.3170732), wk =   0.0370370
        k(   16) = (   0.0000000  -0.5000000  -0.4756098), wk =   0.0185185
        k(   17) = (   0.1666667   0.1666667   0.0000000), wk =   0.0370370
        k(   18) = (   0.1666667   0.1666667   0.1585366), wk =   0.0740741
        k(   19) = (   0.1666667   0.1666667   0.3170732), wk =   0.0740741
        k(   20) = (   0.1666667   0.1666667  -0.4756098), wk =   0.0370370
        k(   21) = (   0.1666667   0.3333333   0.0000000), wk =   0.0740741
        k(   22) = (   0.1666667   0.3333333   0.1585366), wk =   0.1481481
        k(   23) = (   0.1666667   0.3333333   0.3170732), wk =   0.1481481
        k(   24) = (   0.1666667   0.3333333  -0.4756098), wk =   0.0740741
        k(   25) = (   0.1666667  -0.5000000   0.0000000), wk =   0.0370370
        k(   26) = (   0.1666667  -0.5000000   0.1585366), wk =   0.0740741
        k(   27) = (   0.1666667  -0.5000000   0.3170732), wk =   0.0740741
        k(   28) = (   0.1666667  -0.5000000  -0.4756098), wk =   0.0370370
        k(   29) = (   0.3333333   0.3333333   0.0000000), wk =   0.0370370
        k(   30) = (   0.3333333   0.3333333   0.1585366), wk =   0.0740741
        k(   31) = (   0.3333333   0.3333333   0.3170732), wk =   0.0740741
        k(   32) = (   0.3333333   0.3333333  -0.4756098), wk =   0.0370370
        k(   33) = (   0.3333333  -0.5000000   0.0000000), wk =   0.0370370
        k(   34) = (   0.3333333  -0.5000000   0.1585366), wk =   0.0740741
        k(   35) = (   0.3333333  -0.5000000   0.3170732), wk =   0.0740741
        k(   36) = (   0.3333333  -0.5000000  -0.4756098), wk =   0.0370370
        k(   37) = (  -0.5000000  -0.5000000   0.0000000), wk =   0.0092593
        k(   38) = (  -0.5000000  -0.5000000   0.1585366), wk =   0.0185185
        k(   39) = (  -0.5000000  -0.5000000   0.3170732), wk =   0.0185185
        k(   40) = (  -0.5000000  -0.5000000  -0.4756098), wk =   0.0092593

     Dense  grid:    74795 G-vectors     FFT dimensions: (  54,  54,  60)

     Smooth grid:    26375 G-vectors     FFT dimensions: (  40,  40,  40)

     Estimated max dynamical RAM per process >      91.84 MB

     Estimated total dynamical RAM >     367.34 MB

     Initial potential from superposition of free atoms

     starting charge      42.9982, renormalised to      44.0000
     Starting wfcs are   31 randomized atomic wfcs

     total cpu time spent up to now is        1.8 secs

     Self-consistent Calculation

     iteration #  1     ecut=    60.00 Ry     beta= 0.30
     Davidson diagonalization with overlap
     ethr =  1.00E-02,  avg # of iterations =  1.9

     total cpu time spent up to now is        3.1 secs

     total energy              =    -333.58415014 Ry
     estimated scf accuracy    <       1.02216591 Ry

     iteration #  2     ecut=    60.00 Ry     beta= 0.30
     Davidson diagonalization with overlap
     ethr =  2.32E-03,  avg # of iterations =  3.6

     total cpu time spent up to now is        4.6 secs

     total energy              =    -333.74492335 Ry
     estimated scf accuracy    <       0.10366389 Ry

     iteration #  3     ecut=    60.00 Ry     beta= 0.30
     Davidson diagonalization with overlap
     ethr =  2.36E-04,  avg # of iterations =  4.5

     total cpu time spent up to now is        6.3 secs

     total energy              =    -333.72789750 Ry
     estimated scf accuracy    <       0.08715993 Ry

     iteration #  4     ecut=    60.00 Ry     beta= 0.30
     Davidson diagonalization with overlap
     ethr =  1.98E-04,  avg # of iterations =  5.0

     total cpu time spent up to now is        8.1 secs

     total energy              =    -333.77213435 Ry
     estimated scf accuracy    <       0.13600243 Ry

     iteration #  5     ecut=    60.00 Ry     beta= 0.30
     Davidson diagonalization with overlap
     ethr =  1.98E-04,  avg # of iterations =  1.0

     total cpu time spent up to now is        9.2 secs

     total energy              =    -333.74546037 Ry
     estimated scf accuracy    <       0.08899950 Ry

     iteration #  6     ecut=    60.00 Ry     beta= 0.30
     Davidson diagonalization with overlap
     ethr =  1.98E-04,  avg # of iterations =  4.0

     total cpu time spent up to now is       10.7 secs

     total energy              =    -333.75652576 Ry
     estimated scf accuracy    <       0.00615165 Ry

     iteration #  7     ecut=    60.00 Ry     beta= 0.30
     Davidson diagonalization with overlap
     ethr =  1.40E-05,  avg # of iterations =  5.1

     total cpu time spent up to now is       12.4 secs

     total energy              =    -333.76036929 Ry
     estimated scf accuracy    <       0.00046477 Ry

     iteration #  8     ecut=    60.00 Ry     beta= 0.30
     Davidson diagonalization with overlap
     ethr =  1.06E-06,  avg # of iterations =  6.0

     total cpu time spent up to now is       14.5 secs

     total energy              =    -333.75998665 Ry
     estimated scf accuracy    <       0.00342417 Ry

     iteration #  9     ecut=    60.00 Ry     beta= 0.30
     Davidson diagonalization with overlap
     ethr =  1.06E-06,  avg # of iterations =  5.0

     total cpu time spent up to now is       16.3 secs

     total energy              =    -333.76014081 Ry
     estimated scf accuracy    <       0.00035343 Ry

     iteration # 10     ecut=    60.00 Ry     beta= 0.30
     Davidson diagonalization with overlap
     ethr =  8.03E-07,  avg # of iterations =  4.6

     total cpu time spent up to now is       17.9 secs

     total energy              =    -333.76021430 Ry
     estimated scf accuracy    <       0.00001344 Ry

     iteration # 11     ecut=    60.00 Ry     beta= 0.30
     Davidson diagonalization with overlap
     ethr =  3.05E-08,  avg # of iterations =  5.5

     total cpu time spent up to now is       19.8 secs

     total energy              =    -333.76021627 Ry
     estimated scf accuracy    <       0.00004394 Ry

     iteration # 12     ecut=    60.00 Ry     beta= 0.30
     Davidson diagonalization with overlap
     ethr =  3.05E-08,  avg # of iterations =  3.5

     total cpu time spent up to now is       21.1 secs

     total energy              =    -333.76021096 Ry
     estimated scf accuracy    <       0.00001776 Ry

     iteration # 13     ecut=    60.00 Ry     beta= 0.30
     Davidson diagonalization with overlap
     ethr =  3.05E-08,  avg # of iterations =  4.7

     total cpu time spent up to now is       22.8 secs

     total energy              =    -333.76021636 Ry
     estimated scf accuracy    <       0.00000305 Ry

     iteration # 14     ecut=    60.00 Ry     beta= 0.30
     Davidson diagonalization with overlap
     ethr =  6.94E-09,  avg # of iterations =  3.7

     total cpu time spent up to now is       24.2 secs

     total energy              =    -333.76021670 Ry
     estimated scf accuracy    <       0.00000032 Ry

     iteration # 15     ecut=    60.00 Ry     beta= 0.30
     Davidson diagonalization with overlap
     ethr =  7.25E-10,  avg # of iterations =  4.8

     total cpu time spent up to now is       25.8 secs

     total energy              =    -333.76021685 Ry
     estimated scf accuracy    <       0.00000001 Ry

     iteration # 16     ecut=    60.00 Ry     beta= 0.30
     Davidson diagonalization with overlap
     ethr =  2.58E-11,  avg # of iterations =  5.5

     total cpu time spent up to now is       27.6 secs

     total energy              =    -333.76021685 Ry
     estimated scf accuracy    <       0.00000003 Ry

     iteration # 17     ecut=    60.00 Ry     beta= 0.30
     Davidson diagonalization with overlap
     ethr =  2.58E-11,  avg # of iterations =  4.4

     total cpu time spent up to now is       29.1 secs

     End of self-consistent calculation

          k = 0.0000 0.0000 0.0000 (  3279 PWs)   bands (ev):

   -45.8382 -22.4888 -22.4159 -22.4159  -7.5348  -6.4765  -6.2499  -5.0616
    -5.0616  -5.0309  -4.9108  -4.8194   4.1595   6.3278   6.3278   6.6504
     8.2980   8.2980   8.5244   8.7603   8.9563   8.9563

          k = 0.0000 0.0000 0.1585 (  3299 PWs)   bands (ev):

   -45.8381 -22.4990 -22.4156 -22.4156  -7.4416  -6.4476  -6.2189  -5.0692
    -5.0692  -5.0302  -4.9069  -4.8545   3.7352   6.3791   6.3791   6.9130
     8.1253   8.1253   8.4818   8.5845   9.0091   9.0091

          k = 0.0000 0.0000 0.3171 (  3303 PWs)   bands (ev):

   -45.8377 -22.5191 -22.4149 -22.4149  -7.2439  -6.3857  -6.1608  -5.0843
    -5.0843  -5.0290  -4.9286  -4.9004   3.1474   6.4829   6.4829   6.5046
     7.8455   7.8455   8.3997   9.0840   9.0840   9.2764

          k = 0.0000 0.0000-0.4756 (  3276 PWs)   bands (ev):

   -45.8375 -22.5291 -22.4145 -22.4145  -7.1380  -6.3523  -6.1350  -5.0918
    -5.0918  -5.0283  -4.9682  -4.8978   2.9195   6.1542   6.5356   6.5356
     7.7248   7.7248   8.3600   9.1162   9.1162   9.9746

          k = 0.0000 0.1667 0.0000 (  3294 PWs)   bands (ev):

   -45.8378 -22.4882 -22.4340 -22.4152  -7.3989  -6.4434  -6.2209  -5.0830
    -5.0603  -5.0434  -4.9142  -4.8095   3.7546   6.3255   6.4333   6.7095
     8.1625   8.3032   8.5163   8.5996   8.6776   9.0060

          k = 0.0000 0.1667 0.1585 (  3291 PWs)   bands (ev):

   -45.8377 -22.4982 -22.4336 -22.4149  -7.3126  -6.4221  -6.1879  -5.0830
    -5.0681  -5.0430  -4.9116  -4.8281   3.4617   6.2400   6.4880   6.9273
     7.8622   8.1185   8.3413   8.6473   8.6707   9.1573

          k = 0.0000 0.1667 0.3171 (  3294 PWs)   bands (ev):

   -45.8373 -22.5182 -22.4328 -22.4141  -7.1355  -6.3757  -6.1204  -5.0837
    -5.0802  -5.0422  -4.9164  -4.8610   2.9932   6.0813   6.5971   6.7477
     7.4875   7.8494   8.2639   8.7487   8.7563   9.5730

          k = 0.0000 0.1667-0.4756 (  3286 PWs)   bands (ev):

   -45.8371 -22.5281 -22.4324 -22.4137  -7.0450  -6.3495  -6.0861  -5.0914
    -5.0789  -5.0418  -4.9217  -4.8764   2.7977   5.8880   6.6085   6.6509
     7.3861   7.7372   8.3360   8.7736   8.7809   9.8765

          k = 0.0000 0.3333 0.0000 (  3308 PWs)   bands (ev):

   -45.8370 -22.4868 -22.4699 -22.4139  -7.1067  -6.3697  -6.1758  -5.1157
    -5.0683  -5.0576  -4.9126  -4.8134   3.1965   5.9486   6.6206   6.7066
     7.7831   7.8776   8.3706   8.4414   8.7839   9.6012

          k = 0.0000 0.3333 0.1585 (  3295 PWs)   bands (ev):

   -45.8368 -22.4966 -22.4695 -22.4135  -7.0488  -6.3516  -6.1354  -5.1021
    -5.0686  -5.0656  -4.9027  -4.8073   3.0261   5.9031   6.6146   6.7715
     7.4392   7.8209   8.2373   8.3947   8.6880   9.6889

          k = 0.0000 0.3333 0.3171 (  3296 PWs)   bands (ev):

   -45.8365 -22.5163 -22.4686 -22.4127  -6.9542  -6.2980  -6.0352  -5.0824
    -5.0702  -5.0683  -4.9245  -4.7644   2.7158   5.7578   6.3743   6.8906
     7.1945   7.5627   7.7058   8.3496   9.1396   9.5869

          k = 0.0000 0.3333-0.4756 (  3296 PWs)   bands (ev):

   -45.8363 -22.5261 -22.4681 -22.4123  -6.9194  -6.2604  -5.9750  -5.0906
    -5.0684  -5.0513  -4.9460  -4.7390   2.5737   5.5905   6.2382   6.9397
     7.1780   7.3652   7.6575   8.3440   9.3162   9.4760

          k = 0.0000-0.5000 0.0000 (  3326 PWs)   bands (ev):

   -45.8366 -22.4881 -22.4857 -22.4132  -6.9482  -6.3113  -6.1792  -5.1296
    -5.0806  -5.0563  -4.8940  -4.8389   2.9943   5.5547   6.8565   6.9509
     7.3228   7.4973   8.2949   8.4730   8.8206  10.3403

          k = 0.0000-0.5000 0.1585 (  3330 PWs)   bands (ev):

   -45.8364 -22.4956 -22.4876 -22.4128  -6.9201  -6.2752  -6.1380  -5.1143
    -5.0809  -5.0648  -4.8589  -4.8369   2.8561   5.5519   6.8090   6.9238
     7.0457   7.4455   8.3498   8.4024   8.6292  10.0884

          k = 0.0000-0.5000 0.3171 (  3298 PWs)   bands (ev):

   -45.8361 -22.5152 -22.4864 -22.4120  -6.8944  -6.1990  -6.0073  -5.0818
    -5.0814  -5.0803  -4.9056  -4.7311   2.5980   5.5078   6.2221   6.8378
     7.2463   7.3324   7.6494   8.2966   9.1045   9.6572

          k = 0.0000-0.5000-0.4756 (  3280 PWs)   bands (ev):

   -45.8359 -22.5250 -22.4858 -22.4116  -6.8935  -6.1585  -5.9207  -5.0902
    -5.0816  -5.0595  -4.9349  -4.6821   2.4769   5.4177   5.9610   6.8984
     7.2727   7.3530   7.3686   8.2571   9.0839   9.6530

          k = 0.1667 0.1667 0.0000 (  3291 PWs)   bands (ev):

   -45.8374 -22.4875 -22.4334 -22.4331  -7.2650  -6.4096  -6.2126  -5.0880
    -5.0748  -5.0450  -4.8940  -4.8006   3.4676   6.3097   6.4788   6.7606
     7.7584   7.8424   8.5179   8.5778   8.8572   9.2537

          k = 0.1667 0.1667 0.1585 (  3308 PWs)   bands (ev):

   -45.8373 -22.4975 -22.4330 -22.4327  -7.1833  -6.3976  -6.1807  -5.0837
    -5.0803  -5.0421  -4.8886  -4.8068   3.2827   6.2337   6.2530   6.9478
     7.5865   7.7297   8.3716   8.7040   8.9101   9.1861

          k = 0.1667 0.1667 0.3171 (  3301 PWs)   bands (ev):

   -45.8369 -22.5173 -22.4322 -22.4320  -7.0200  -6.3734  -6.1100  -5.0977
    -5.0609  -5.0301  -4.8870  -4.8233   2.9351   6.0647   6.1129   6.6787
     7.4159   7.4753   8.2975   8.8041   9.0041   9.4207

          k = 0.1667 0.1667-0.4756 (  3298 PWs)   bands (ev):

   -45.8367 -22.5272 -22.4318 -22.4316  -6.9393  -6.3613  -6.0695  -5.1028
    -5.0534  -5.0138  -4.8942  -4.8337   2.7747   5.9305   5.9763   6.5629
     7.3712   7.4883   8.2158   8.8323   9.0350   9.5750

          k = 0.1667 0.3333 0.0000 (  3313 PWs)   bands (ev):

   -45.8366 -22.4861 -22.4690 -22.4318  -6.9799  -6.3385  -6.2080  -5.1092
    -5.0654  -5.0304  -4.8730  -4.8053   3.0100   5.9550   6.5531   6.7710
     7.2105   7.7612   8.0224   8.7212   8.8871   9.6796

          k = 0.1667 0.3333 0.1585 (  3306 PWs)   bands (ev):

   -45.8364 -22.4959 -22.4686 -22.4314  -6.9196  -6.3362  -6.1755  -5.0970
    -5.0684  -5.0190  -4.8597  -4.7879   2.9493   5.9037   6.1489   6.6455
     7.1473   7.6791   8.1803   8.6952   8.9233   9.5270

          k = 0.1667 0.3333 0.3171 (  3305 PWs)   bands (ev):

   -45.8361 -22.5155 -22.4677 -22.4306  -6.8242  -6.3206  -6.0864  -5.0862
    -5.0554  -4.9906  -4.8581  -4.7393   2.7962   5.7013   5.9213   6.3737
     6.5999   7.4169   8.4714   8.7061   9.0432   9.3457

          k = 0.1667 0.3333-0.4756 (  3300 PWs)   bands (ev):

   -45.8359 -22.5253 -22.4673 -22.4302  -6.7913  -6.3074  -6.0274  -5.0860
    -5.0429  -4.9668  -4.8693  -4.7134   2.7078   5.5302   5.9159   6.2089
     6.3891   7.3757   8.4752   8.7318   8.8850   9.4524

          k = 0.1667-0.5000 0.0000 (  3318 PWs)   bands (ev):

   -45.8362 -22.4871 -22.4850 -22.4310  -6.8270  -6.2828  -6.2311  -5.1119
    -5.0585  -5.0105  -4.8594  -4.8323   2.8281   5.5718   6.6648   6.8858
     7.1160   7.4119   7.9617   8.7933   8.8673   9.9567

          k = 0.1667-0.5000 0.1585 (  3318 PWs)   bands (ev):

   -45.8360 -22.4949 -22.4866 -22.4306  -6.7918  -6.2667  -6.2028  -5.0973
    -5.0593  -4.9968  -4.8336  -4.8083   2.8045   5.5647   6.0891   6.5834
     7.1097   7.8215   7.8489   8.7411   8.9096   9.6290

          k = 0.1667-0.5000 0.3171 (  3288 PWs)   bands (ev):

   -45.8357 -22.5144 -22.4855 -22.4298  -6.7632  -6.2353  -6.0894  -5.0824
    -5.0376  -4.9744  -4.8433  -4.7058   2.7257   5.5012   5.7784   6.0240
     6.5984   7.5264   8.2772   8.7060   8.8408   9.4473

          k = 0.1667-0.5000-0.4756 (  3304 PWs)   bands (ev):

   -45.8355 -22.5242 -22.4850 -22.4294  -6.7650  -6.2202  -6.0098  -5.0809
    -5.0145  -4.9622  -4.8534  -4.6569   2.6713   5.3866   5.7601   5.8430
     6.3099   7.4704   8.2464   8.6450   8.6656   9.6587

          k = 0.3333 0.3333 0.0000 (  3313 PWs)   bands (ev):

   -45.8358 -22.4847 -22.4673 -22.4672  -6.7340  -6.2741  -6.2515  -5.0909
    -5.0493  -4.9653  -4.8095  -4.7981   2.6556   5.9308   6.0512   6.9468
     7.0191   7.2423   7.8166   8.4590   9.3844   9.3865

          k = 0.3333 0.3333 0.1585 (  3313 PWs)   bands (ev):

   -45.8356 -22.4943 -22.4670 -22.4669  -6.6659  -6.2998  -6.2428  -5.0730
    -5.0457  -4.9344  -4.7769  -4.7697   2.7461   5.8613   5.8844   6.0409
     6.6749   7.4267   8.3682   8.5798   9.0652   9.3907

          k = 0.3333 0.3333 0.3171 (  3314 PWs)   bands (ev):

   -45.8353 -22.5138 -22.4662 -22.4661  -6.5732  -6.3480  -6.1737  -5.0390
    -5.0365  -4.8735  -4.7315  -4.6922   2.9221   5.3427   5.4265   5.8635
     6.4454   6.6116   7.9869   9.1960   9.2518   9.4231

          k = 0.3333 0.3333-0.4756 (  3300 PWs)   bands (ev):

   -45.8351 -22.5235 -22.4658 -22.4657  -6.5524  -6.3706  -6.1099  -5.0358
    -5.0185  -4.8393  -4.7099  -4.6545   2.9985   5.2079   5.2087   5.7340
     6.2817   6.4144   7.5838   9.3561   9.3703   9.5324

          k = 0.3333-0.5000 0.0000 (  3308 PWs)   bands (ev):

   -45.8354 -22.4853 -22.4836 -22.4664  -6.6288  -6.2598  -6.2304  -5.0836
    -5.0283  -4.9087  -4.8387  -4.7664   2.4910   5.5636   6.0810   6.7755
     7.3056   7.3274   7.4244   8.4476   9.0493   9.5704

          k = 0.3333-0.5000 0.1585 (  3306 PWs)   bands (ev):

   -45.8352 -22.4933 -22.4848 -22.4661  -6.5556  -6.2796  -6.2557  -5.0649
    -5.0225  -4.8578  -4.7973  -4.7371   2.6297   5.5545   5.8887   5.9351
     6.4912   7.5531   8.1218   8.6510   8.7074   9.5548

          k = 0.3333-0.5000 0.3171 (  3312 PWs)   bands (ev):

   -45.8349 -22.5128 -22.4839 -22.4653  -6.4928  -6.3031  -6.2218  -5.0308
    -5.0098  -4.7853  -4.7140  -4.6517   2.9552   5.1534   5.3806   5.5226
     6.2212   6.6828   7.3665   9.2698   9.3299   9.5602

          k = 0.3333-0.5000-0.4756 (  3296 PWs)   bands (ev):

   -45.8347 -22.5225 -22.4834 -22.4649  -6.5035  -6.3254  -6.1453  -5.0206
    -4.9973  -4.7554  -4.6723  -4.6019   3.1489   4.9301   5.1257   5.4613
     6.0759   6.4285   6.8320   9.4596   9.5210   9.6789

          k =-0.5000-0.5000 0.0000 (  3312 PWs)   bands (ev):

   -45.8350 -22.4843 -22.4843 -22.4825  -6.5859  -6.2068  -6.2068  -5.0738
    -4.9863  -4.8599  -4.8599  -4.7196   2.3235   5.4146   5.8750   7.0152
     7.0152   7.4392   7.4392   8.2058   8.5319   9.8281

          k =-0.5000-0.5000 0.1585 (  3296 PWs)   bands (ev):

   -45.8348 -22.4923 -22.4839 -22.4839  -6.4914  -6.2532  -6.2532  -5.0548
    -4.9854  -4.7867  -4.7867  -4.7044   2.5122   5.4010   5.8780   6.0395
     6.0395   7.5716   7.8537   8.4850   8.4850   9.8203

          k =-0.5000-0.5000 0.3171 (  3300 PWs)   bands (ev):

   -45.8345 -22.5118 -22.4830 -22.4830  -6.3349  -6.3349  -6.2987  -5.0168
    -4.9836  -4.6673  -4.6495  -4.6495   3.0172   5.2307   5.2307   5.3496
     5.8840   6.5644   6.5729   9.3854   9.3854   9.8047

          k =-0.5000-0.5000-0.4756 (  3296 PWs)   bands (ev):

   -45.8343 -22.5216 -22.4826 -22.4826  -6.3717  -6.3717  -6.2011  -4.9977
    -4.9827  -4.6442  -4.5842  -4.5842   3.4116   4.9392   4.9392   5.2913
     5.8387   5.8869   6.1752   9.6900   9.6900   9.7969

     highest occupied level (ev):    10.3403

!    total energy              =    -333.76021685 Ry
     estimated scf accuracy    <          1.4E-09 Ry

     The total energy is the sum of the following terms:
     one-electron contribution =     -90.76402918 Ry
     hartree contribution      =      71.52522731 Ry
     xc contribution           =     -49.56058634 Ry
     ewald contribution        =    -264.96082864 Ry

     convergence has been achieved in  17 iterations

     Forces acting on atoms (cartesian axes, Ry/au):

     atom    1 type  1   force =     0.00000000    0.00000000   -0.00434063
     atom    2 type  2   force =     0.00000000    0.00000000   -0.01906478
     atom    3 type  3   force =     0.00000000    0.00000000    0.00520631
     atom    4 type  3   force =     0.00000000    0.00000000    0.00909955
     atom    5 type  3   force =     0.00000000    0.00000000    0.00909955

     Total force =     0.023979     Total SCF correction =     0.000032


     Computing stress (Cartesian axis) and pressure

          total   stress  (Ry/bohr**3)                   (kbar)     P=      -61.18
  -0.00040332   0.00000000   0.00000000          -59.33        0.00        0.00
   0.00000000  -0.00040332   0.00000000            0.00      -59.33        0.00
   0.00000000   0.00000000  -0.00044104            0.00        0.00      -64.88


     BFGS Geometry Optimization
     Energy error            =      6.3E-03 Ry
     Gradient error          =      1.9E-02 Ry/Bohr
     Cell gradient error     =      6.5E+01 kbar

     number of scf cycles    =   1
     number of bfgs steps    =   0

     enthalpy           new  =    -333.7602168546 Ry

     new trust radius        =       0.0452378531 bohr
     new conv_thr            =       0.0000000100 Ry

     new unit-cell volume =    407.84218 a.u.^3 (    60.43598 Ang^3 )
     density =      8.32699 g/cm^3

CELL_PARAMETERS (angstrom)
   3.860676393   0.000000000   0.000000000
   0.000000000   3.860676393   0.000000000
   0.000000000   0.000000000   4.054793487

ATOMIC_POSITIONS (crystal)
Pb               0.0000000000        0.0000000000       -0.0005602344
Ti               0.5000000000        0.5000000000        0.5375393550
O                0.5000000000        0.5000000000        0.1006719660
O                0.5000000000        0.0000000000        0.6011744567
O                0.0000000000        0.5000000000        0.6011744567



     Writing config-only to output data dir ./tmp_pzt/pzt.save/ :
     XML data file
     NEW-OLD atomic charge density approx. for the potential
     New effective cutoffs (rho, wfc):  490.18   61.34

     total cpu time spent up to now is       30.9 secs

     Self-consistent Calculation

     iteration #  1     ecut=    60.00 Ry     beta= 0.30
     Davidson diagonalization with overlap
     ethr =  1.00E-06,  avg # of iterations =  8.4

     total cpu time spent up to now is       33.9 secs

     total energy              =    -333.76335201 Ry
     estimated scf accuracy    <       0.00025248 Ry

     iteration #  2     ecut=    60.00 Ry     beta= 0.30
     Davidson diagonalization with overlap
     ethr =  5.74E-07,  avg # of iterations =  1.9

     total cpu time spent up to now is       35.1 secs

     total energy              =    -333.76333496 Ry
     estimated scf accuracy    <       0.00007729 Ry

     iteration #  3     ecut=    60.00 Ry     beta= 0.30
     Davidson diagonalization with overlap
     ethr =  1.76E-07,  avg # of iterations =  5.0

     total cpu time spent up to now is       36.9 secs

     total energy              =    -333.76337291 Ry
     estimated scf accuracy    <       0.00005299 Ry

     iteration #  4     ecut=    60.00 Ry     beta= 0.30
     Davidson diagonalization with overlap
     ethr =  1.20E-07,  avg # of iterations =  1.0

     total cpu time spent up to now is       38.0 secs

     total energy              =    -333.76340168 Ry
     estimated scf accuracy    <       0.00005473 Ry

     iteration #  5     ecut=    60.00 Ry     beta= 0.30
     Davidson diagonalization with overlap
     ethr =  1.20E-07,  avg # of iterations =  4.4

     total cpu time spent up to now is       39.6 secs

     total energy              =    -333.76329603 Ry
     estimated scf accuracy    <       0.00023991 Ry

     iteration #  6     ecut=    60.00 Ry     beta= 0.30
     Davidson diagonalization with overlap
     ethr =  1.20E-07,  avg # of iterations =  6.0

     total cpu time spent up to now is       41.6 secs

     total energy              =    -333.76336225 Ry
     estimated scf accuracy    <       0.00004014 Ry

     iteration #  7     ecut=    60.00 Ry     beta= 0.30
     Davidson diagonalization with overlap
     ethr =  9.12E-08,  avg # of iterations =  1.1

     total cpu time spent up to now is       42.8 secs

     total energy              =    -333.76335419 Ry
     estimated scf accuracy    <       0.00001964 Ry

     iteration #  8     ecut=    60.00 Ry     beta= 0.30
     Davidson diagonalization with overlap
     ethr =  4.46E-08,  avg # of iterations =  5.1

     total cpu time spent up to now is       44.5 secs

     total energy              =    -333.76336316 Ry
     estimated scf accuracy    <       0.00000673 Ry

     iteration #  9     ecut=    60.00 Ry     beta= 0.30
     Davidson diagonalization with overlap
     ethr =  1.53E-08,  avg # of iterations =  1.4

     total cpu time spent up to now is       45.6 secs

     total energy              =    -333.76336261 Ry
     estimated scf accuracy    <       0.00000392 Ry

     iteration # 10     ecut=    60.00 Ry     beta= 0.30
     Davidson diagonalization with overlap
     ethr =  8.90E-09,  avg # of iterations =  2.4

     total cpu time spent up to now is       46.9 secs

     total energy              =    -333.76336284 Ry
     estimated scf accuracy    <       0.00000141 Ry

     iteration # 11     ecut=    60.00 Ry     beta= 0.30
     Davidson diagonalization with overlap
     ethr =  3.20E-09,  avg # of iterations =  1.5

     total cpu time spent up to now is       48.0 secs

     total energy              =    -333.76336276 Ry
     estimated scf accuracy    <       0.00000118 Ry

     iteration # 12     ecut=    60.00 Ry     beta= 0.30
     Davidson diagonalization with overlap
     ethr =  2.68E-09,  avg # of iterations =  2.5

     total cpu time spent up to now is       49.2 secs

     total energy              =    -333.76336271 Ry
     estimated scf accuracy    <       0.00000061 Ry

     iteration # 13     ecut=    60.00 Ry     beta= 0.30
     Davidson diagonalization with overlap
     ethr =  1.39E-09,  avg # of iterations =  4.2

     total cpu time spent up to now is       50.6 secs

     total energy              =    -333.76336280 Ry
     estimated scf accuracy    <       0.00000006 Ry

     iteration # 14     ecut=    60.00 Ry     beta= 0.30
     Davidson diagonalization with overlap
     ethr =  1.32E-10,  avg # of iterations =  4.6

     total cpu time spent up to now is       52.1 secs

     End of self-consistent calculation

          k = 0.0000 0.0000 0.0000 (  3279 PWs)   bands (ev):

   -45.2054 -21.9100 -21.8045 -21.8045  -7.2149  -6.0866  -5.8559  -4.5085
    -4.5085  -4.4745  -4.3576  -4.2558   4.7177   6.7131   6.7131   7.0882
     8.6548   8.6548   8.9374   9.1946   9.4154   9.4154

          k = 0.0000 0.0000 0.1603 (  3299 PWs)   bands (ev):

   -45.2052 -21.9221 -21.8041 -21.8041  -7.1137  -6.0561  -5.8201  -4.5173
    -4.5173  -4.4737  -4.3519  -4.2937   4.2328   6.7554   6.7554   7.3949
     8.4956   8.4956   8.8949   9.0265   9.4748   9.4748

          k = 0.0000 0.0000 0.3206 (  3303 PWs)   bands (ev):

   -45.2047 -21.9459 -21.8032 -21.8032  -6.8995  -5.9909  -5.7521  -4.5347
    -4.5347  -4.4722  -4.3738  -4.3415   3.5842   6.8321   6.8321   6.9419
     8.2532   8.2532   8.8130   9.5576   9.5576   9.8142

          k = 0.0000 0.0000-0.4809 (  3276 PWs)   bands (ev):

   -45.2045 -21.9578 -21.8028 -21.8028  -6.7850  -5.9558  -5.7211  -4.5434
    -4.5434  -4.4715  -4.4164  -4.3369   3.3355   6.5681   6.8647   6.8647
     8.1582   8.1582   8.7735   9.5921   9.5921  10.5692

          k = 0.0000 0.1684 0.0000 (  3294 PWs)   bands (ev):

   -45.2049 -21.9092 -21.8255 -21.8037  -7.0705  -6.0495  -5.8251  -4.5333
    -4.5070  -4.4888  -4.3592  -4.2440   4.2591   6.7350   6.8207   7.1289
     8.5819   8.6629   8.9236   9.0479   9.1190   9.4711

          k = 0.0000 0.1684 0.1603 (  3291 PWs)   bands (ev):

   -45.2047 -21.9211 -21.8250 -21.8033  -6.9765  -6.0269  -5.7873  -4.5335
    -4.5161  -4.4883  -4.3554  -4.2641   3.9316   6.6283   6.8685   7.3718
     8.2880   8.4855   8.7757   9.0594   9.1299   9.6409

          k = 0.0000 0.1684 0.3206 (  3294 PWs)   bands (ev):

   -45.2043 -21.9448 -21.8241 -21.8024  -6.7836  -5.9777  -5.7096  -4.5341
    -4.5313  -4.4874  -4.3574  -4.2999   3.4158   6.4419   6.9537   7.1869
     7.8934   8.2469   8.7200   9.1700   9.2202  10.1223

          k = 0.0000 0.1684-0.4809 (  3286 PWs)   bands (ev):

   -45.2040 -21.9566 -21.8236 -21.8019  -6.6853  -5.9499  -5.6697  -4.5430
    -4.5305  -4.4870  -4.3614  -4.3161   3.2021   6.2426   6.9886   7.0176
     7.8081   8.1592   8.7889   9.1879   9.2552  10.4675

          k = 0.0000 0.3367 0.0000 (  3308 PWs)   bands (ev):

   -45.2040 -21.9074 -21.8672 -21.8021  -6.7596  -5.9679  -5.7779  -4.5698
    -4.5173  -4.5038  -4.3549  -4.2461   3.6526   6.3657   7.0036   7.0936
     8.2238   8.3113   8.7831   8.8091   9.2266  10.1311

          k = 0.0000 0.3367 0.1603 (  3295 PWs)   bands (ev):

   -45.2038 -21.9192 -21.8666 -21.8016  -6.6949  -5.9488  -5.7325  -4.5547
    -4.5177  -4.5132  -4.3426  -4.2403   3.4615   6.3101   7.0080   7.1578
     7.8644   8.2200   8.6752   8.8094   9.1136  10.2236

          k = 0.0000 0.3367 0.3206 (  3296 PWs)   bands (ev):

   -45.2033 -21.9425 -21.8654 -21.8007  -6.5888  -5.8913  -5.6208  -4.5328
    -4.5198  -4.5176  -4.3628  -4.1946   3.1173   6.1338   6.7830   7.2634
     7.6000   7.9836   8.0854   8.8182   9.5928  10.1316

          k = 0.0000 0.3367-0.4809 (  3296 PWs)   bands (ev):

   -45.2031 -21.9541 -21.8648 -21.8002  -6.5496  -5.8507  -5.5536  -4.5423
    -4.5178  -4.4997  -4.3842  -4.1667   2.9608   5.9430   6.6535   7.2961
     7.5826   7.7746   8.0496   8.8261   9.7930  10.0149

          k = 0.0000-0.5051 0.0000 (  3326 PWs)   bands (ev):

   -45.2035 -21.9064 -21.8881 -21.8013  -6.5906  -5.9016  -5.7850  -4.5844
    -4.5313  -4.5023  -4.3355  -4.2711   3.4387   5.9588   7.2228   7.3225
     7.7726   7.9505   8.7055   8.8347   9.2593  10.9242

          k = 0.0000-0.5051 0.1603 (  3330 PWs)   bands (ev):

   -45.2033 -21.9180 -21.8875 -21.8008  -6.5568  -5.8631  -5.7398  -4.5670
    -4.5317  -4.5122  -4.2921  -4.2739   3.2821   5.9551   7.1831   7.3452
     7.4240   7.8676   8.7859   8.8005   9.0575  10.6589

          k = 0.0000-0.5051 0.3206 (  3298 PWs)   bands (ev):

   -45.2028 -21.9413 -21.8860 -21.7998  -6.5238  -5.7821  -5.5954  -4.5326
    -4.5320  -4.5289  -4.3410  -4.1582   2.9937   5.9022   6.6013   7.2179
     7.6391   7.7035   8.0730   8.7530   9.6064  10.1686

          k = 0.0000-0.5051-0.4809 (  3280 PWs)   bands (ev):

   -45.2026 -21.9528 -21.8853 -21.7993  -6.5210  -5.7391  -5.4992  -4.5418
    -4.5330  -4.5058  -4.3716  -4.1040   2.8599   5.7920   6.3367   7.2770
     7.6236   7.7536   7.7849   8.7360   9.6627  10.0982

          k = 0.1684 0.1684 0.0000 (  3291 PWs)   bands (ev):

   -45.2045 -21.9083 -21.8249 -21.8244  -6.9281  -6.0115  -5.8154  -4.5387
    -4.5236  -4.4914  -4.3369  -4.2335   3.9404   6.6996   6.8952   7.1810
     8.1183   8.2552   8.9830   9.0113   9.3109   9.7096

          k = 0.1684 0.1684 0.1603 (  3308 PWs)   bands (ev):

   -45.2042 -21.9202 -21.8244 -21.8240  -6.8386  -5.9985  -5.7789  -4.5339
    -4.5300  -4.4886  -4.3305  -4.2403   3.7365   6.5990   6.6367   7.3883
     7.9854   8.1730   8.7921   9.1315   9.3578   9.6781

          k = 0.1684 0.1684 0.3206 (  3301 PWs)   bands (ev):

   -45.2038 -21.9438 -21.8233 -21.8230  -6.6598  -5.9721  -5.6979  -4.5501
    -4.5080  -4.4768  -4.3270  -4.2587   3.3521   6.3904   6.4884   7.0957
     7.8622   7.9114   8.7098   9.2376   9.4425   9.9782

          k = 0.1684 0.1684-0.4809 (  3298 PWs)   bands (ev):

   -45.2036 -21.9555 -21.8228 -21.8226  -6.5715  -5.9589  -5.6514  -4.5559
    -4.4998  -4.4596  -4.3332  -4.2703   3.1748   6.2871   6.3031   6.9684
     7.8338   7.9120   8.6384   9.2673   9.4726  10.1549

          k = 0.1684 0.3367 0.0000 (  3313 PWs)   bands (ev):

   -45.2035 -21.9066 -21.8662 -21.8229  -6.6251  -5.9327  -5.8075  -4.5618
    -4.5131  -4.4777  -4.3144  -4.2369   3.4422   6.3671   6.9354   7.1837
     7.6132   8.1388   8.4643   9.1696   9.3431  10.2040

          k = 0.1684 0.3367 0.1603 (  3306 PWs)   bands (ev):

   -45.2033 -21.9183 -21.8656 -21.8224  -6.5570  -5.9297  -5.7709  -4.5481
    -4.5166  -4.4664  -4.2990  -4.2193   3.3741   6.3008   6.4977   7.0497
     7.5647   8.1191   8.6248   9.1223   9.3527  10.0584

          k = 0.1684 0.3367 0.3206 (  3305 PWs)   bands (ev):

   -45.2028 -21.9416 -21.8645 -21.8214  -6.4486  -5.9113  -5.6713  -4.5371
    -4.5018  -4.4372  -4.2955  -4.1681   3.1995   6.0538   6.2628   6.7821
     6.9950   7.8865   8.9124   9.1358   9.5414   9.8154

          k = 0.1684 0.3367-0.4809 (  3300 PWs)   bands (ev):

   -45.2026 -21.9531 -21.8639 -21.8209  -6.4110  -5.8961  -5.6048  -4.5373
    -4.4883  -4.4115  -4.3072  -4.1398   3.0982   5.8615   6.2704   6.5857
     6.7975   7.8470   8.9102   9.1753   9.4066   9.8970

          k = 0.1684-0.5051 0.0000 (  3318 PWs)   bands (ev):

   -45.2030 -21.9054 -21.8870 -21.8220  -6.4623  -5.8697  -5.8328  -4.5645
    -4.5054  -4.4581  -4.3008  -4.2639   3.2476   5.9778   7.0127   7.3118
     7.5207   7.8703   8.3207   9.2200   9.3363  10.5352

          k = 0.1684-0.5051 0.1603 (  3318 PWs)   bands (ev):

   -45.2028 -21.9171 -21.8863 -21.8215  -6.4196  -5.8517  -5.8018  -4.5480
    -4.5066  -4.4450  -4.2656  -4.2449   3.2186   5.9690   6.4262   6.9615
     7.5554   8.2534   8.2797   9.1656   9.3410  10.1837

          k = 0.1684-0.5051 0.3206 (  3288 PWs)   bands (ev):

   -45.2024 -21.9403 -21.8850 -21.8205  -6.3818  -5.8168  -5.6755  -4.5326
    -4.4812  -4.4240  -4.2771  -4.1323   3.1234   5.8870   6.1107   6.3817
     6.9935   7.9999   8.7509   9.1137   9.3474   9.8928

          k = 0.1684-0.5051-0.4809 (  3304 PWs)   bands (ev):

   -45.2021 -21.9519 -21.8844 -21.8200  -6.3815  -5.7998  -5.5859  -4.5314
    -4.4544  -4.4126  -4.2891  -4.0780   3.0586   5.7416   6.0954   6.2160
     6.6858   7.9475   8.7660   9.0737   9.1038  10.1077

          k = 0.3367 0.3367 0.0000 (  3313 PWs)   bands (ev):

   -45.2025 -21.9047 -21.8642 -21.8639  -6.3660  -5.8594  -5.8442  -4.5411
    -4.4957  -4.4087  -4.2409  -4.2381   3.0466   6.3568   6.4504   7.3175
     7.4366   7.5872   8.2579   8.9560   9.8403   9.9351

          k = 0.3367 0.3367 0.1603 (  3313 PWs)   bands (ev):

   -45.2023 -21.9163 -21.8637 -21.8634  -6.2873  -5.8852  -5.8345  -4.5205
    -4.4920  -4.3776  -4.2151  -4.1991   3.1408   6.2301   6.2430   6.4445
     7.0714   7.8795   8.8451   9.0097   9.5704   9.8463

          k = 0.3367 0.3367 0.3206 (  3314 PWs)   bands (ev):

   -45.2019 -21.9395 -21.8627 -21.8625  -6.1771  -5.9338  -5.7582  -4.4847
    -4.4787  -4.3168  -4.1646  -4.1176   3.3204   5.6556   5.7353   6.2887
     6.8748   7.0336   8.5082   9.6285   9.6995   9.8736

          k = 0.3367 0.3367-0.4809 (  3300 PWs)   bands (ev):

   -45.2017 -21.9510 -21.8621 -21.8620  -6.1513  -5.9568  -5.6861  -4.4812
    -4.4583  -4.2829  -4.1395  -4.0777   3.3934   5.5043   5.5211   6.1402
     6.6961   6.8486   8.0881   9.7926   9.8298   9.9756

          k = 0.3367-0.5051 0.0000 (  3308 PWs)   bands (ev):

   -45.2021 -21.9036 -21.8847 -21.8630  -6.2567  -5.8471  -5.8105  -4.5328
    -4.4725  -4.3489  -4.2718  -4.2058   2.8646   5.9780   6.4914   7.1282
     7.6511   7.7421   7.8626   8.9390   9.6157  10.0435

          k = 0.3367-0.5051 0.1603 (  3306 PWs)   bands (ev):

   -45.2018 -21.9152 -21.8842 -21.8626  -6.1712  -5.8686  -5.8356  -4.5112
    -4.4663  -4.2971  -4.2288  -4.1734   3.0078   5.9683   6.2221   6.3036
     6.8880   8.0077   8.6094   9.0814   9.1970  10.0196

          k = 0.3367-0.5051 0.3206 (  3312 PWs)   bands (ev):

   -45.2014 -21.9383 -21.8830 -21.8616  -6.0884  -5.8829  -5.8078  -4.4730
    -4.4510  -4.2265  -4.1418  -4.0773   3.3441   5.4591   5.6895   5.9405
     6.6379   7.1043   7.8762   9.7051   9.7776  10.0204

          k = 0.3367-0.5051-0.4809 (  3296 PWs)   bands (ev):

   -45.2012 -21.9498 -21.8825 -21.8611  -6.0966  -5.9053  -5.7214  -4.4628
    -4.4350  -4.1977  -4.0979  -4.0217   3.5428   5.2274   5.4198   5.8794
     6.4694   6.8537   7.3180   9.8981   9.9863  10.1303

          k =-0.5051-0.5051 0.0000 (  3312 PWs)   bands (ev):

   -45.2016 -21.9024 -21.8836 -21.8836  -6.2130  -5.7836  -5.7836  -4.5218
    -4.4252  -4.2967  -4.2967  -4.1567   2.6767   5.8310   6.2829   7.3528
     7.3528   7.8563   7.8563   8.7057   9.1284  10.3059

          k =-0.5051-0.5051 0.1603 (  3296 PWs)   bands (ev):

   -45.2014 -21.9141 -21.8831 -21.8831  -6.1068  -5.8307  -5.8307  -4.4999
    -4.4241  -4.2194  -4.2194  -4.1416   2.8692   5.8182   6.2861   6.3713
     6.3713   8.0375   8.4110   8.9071   8.9071  10.2971

          k =-0.5051-0.5051 0.3206 (  3300 PWs)   bands (ev):

   -45.2009 -21.9372 -21.8820 -21.8820  -5.9144  -5.9144  -5.8892  -4.4561
    -4.4220  -4.1043  -4.0733  -4.0733   3.3855   5.5355   5.5355   5.7699
     6.2926   6.9803   7.0629   9.8302   9.8302  10.2794

          k =-0.5051-0.5051-0.4809 (  3296 PWs)   bands (ev):

   -45.2007 -21.9487 -21.8815 -21.8815  -5.9521  -5.9521  -5.7780  -4.4341
    -4.4209  -4.0810  -4.0033  -4.0033   3.7890   5.2330   5.2330   5.7127
     6.2959   6.3101   6.5561  10.1422  10.1422  10.2706

     highest occupied level (ev):    10.9242

!    total energy              =    -333.76336281 Ry
     estimated scf accuracy    <          8.4E-09 Ry

     The total energy is the sum of the following terms:
     one-electron contribution =     -86.79986988 Ry
     hartree contribution      =      70.40322648 Ry
     xc contribution           =     -49.68090855 Ry
     ewald contribution        =    -267.68581087 Ry

     convergence has been achieved in  14 iterations

     Forces acting on atoms (cartesian axes, Ry/au):

     atom    1 type  1   force =     0.00000000    0.00000000    0.00072322
     atom    2 type  2   force =     0.00000000    0.00000000   -0.00117571
     atom    3 type  3   force =     0.00000000    0.00000000   -0.01618977
     atom    4 type  3   force =     0.00000000    0.00000000    0.00832113
     atom    5 type  3   force =     0.00000000    0.00000000    0.00832113

     Total force =     0.020062     Total SCF correction =     0.000080


     Computing stress (Cartesian axis) and pressure

          total   stress  (Ry/bohr**3)                   (kbar)     P=       -1.39
  -0.00001942   0.00000000   0.00000000           -2.86        0.00        0.00
   0.00000000  -0.00001942   0.00000000            0.00       -2.86        0.00
   0.00000000   0.00000000   0.00001059            0.00        0.00        1.56

     Energy error            =      3.1E-03 Ry
     Gradient error          =      1.6E-02 Ry/Bohr
     Cell gradient error     =      2.9E+00 kbar

     number of scf cycles    =   2
     number of bfgs steps    =   1

     enthalpy           old  =    -333.7602168546 Ry
     enthalpy           new  =    -333.7633628126 Ry

     CASE: enthalpy          _new < enthalpy          _old

     new trust radius        =       0.0160124505 bohr
     new conv_thr            =       0.0000000016 Ry

     new unit-cell volume =    406.64863 a.u.^3 (    60.25911 Ang^3 )
     density =      8.35143 g/cm^3

CELL_PARAMETERS (angstrom)
   3.856005663   0.000000000   0.000000000
   0.000000000   3.856005663   0.000000000
   0.000000000   0.000000000   4.052727366

ATOMIC_POSITIONS (crystal)
Pb               0.0000000000        0.0000000000       -0.0005040118
Ti               0.5000000000        0.5000000000        0.5372118735
O                0.5000000000        0.5000000000        0.0985822359
O                0.5000000000        0.0000000000        0.6023549512
O                0.0000000000        0.5000000000        0.6023549512



     Writing config-only to output data dir ./tmp_pzt/pzt.save/ :
     XML data file
     NEW-OLD atomic charge density approx. for the potential
     New effective cutoffs (rho, wfc):  490.98   61.41

     total cpu time spent up to now is       53.8 secs

     Self-consistent Calculation

     iteration #  1     ecut=    60.00 Ry     beta= 0.30
     Davidson diagonalization with overlap
     ethr =  1.00E-06,  avg # of iterations =  6.3

     total cpu time spent up to now is       56.0 secs

     total energy              =    -333.76369962 Ry
     estimated scf accuracy    <       0.00006576 Ry

     iteration #  2     ecut=    60.00 Ry     beta= 0.30
     Davidson diagonalization with overlap
     ethr =  1.49E-07,  avg # of iterations =  3.5

     total cpu time spent up to now is       57.4 secs

     total energy              =    -333.76370189 Ry
     estimated scf accuracy    <       0.00001645 Ry

     iteration #  3     ecut=    60.00 Ry     beta= 0.30
     Davidson diagonalization with overlap
     ethr =  3.74E-08,  avg # of iterations =  5.2

     total cpu time spent up to now is       59.0 secs

     total energy              =    -333.76370778 Ry
     estimated scf accuracy    <       0.00001215 Ry

     iteration #  4     ecut=    60.00 Ry     beta= 0.30
     Davidson diagonalization with overlap
     ethr =  2.76E-08,  avg # of iterations =  1.9

     total cpu time spent up to now is       60.2 secs

     total energy              =    -333.76370449 Ry
     estimated scf accuracy    <       0.00000527 Ry

     iteration #  5     ecut=    60.00 Ry     beta= 0.30
     Davidson diagonalization with overlap
     ethr =  1.20E-08,  avg # of iterations =  6.5

     total cpu time spent up to now is       62.3 secs

     total energy              =    -333.76370446 Ry
     estimated scf accuracy    <       0.00003547 Ry

     iteration #  6     ecut=    60.00 Ry     beta= 0.30
     Davidson diagonalization with overlap
     ethr =  1.20E-08,  avg # of iterations =  5.3

     total cpu time spent up to now is       64.1 secs

     total energy              =    -333.76370776 Ry
     estimated scf accuracy    <       0.00000123 Ry

     iteration #  7     ecut=    60.00 Ry     beta= 0.30
     Davidson diagonalization with overlap
     ethr =  2.80E-09,  avg # of iterations =  4.8

     total cpu time spent up to now is       65.7 secs

     total energy              =    -333.76370814 Ry
     estimated scf accuracy    <       0.00000008 Ry

     iteration #  8     ecut=    60.00 Ry     beta= 0.30
     Davidson diagonalization with overlap
     ethr =  1.91E-10,  avg # of iterations =  4.8

     total cpu time spent up to now is       67.3 secs

     total energy              =    -333.76370809 Ry
     estimated scf accuracy    <       0.00000020 Ry

     iteration #  9     ecut=    60.00 Ry     beta= 0.30
     Davidson diagonalization with overlap
     ethr =  1.91E-10,  avg # of iterations =  4.8

     total cpu time spent up to now is       68.9 secs

     total energy              =    -333.76370813 Ry
     estimated scf accuracy    <          4.9E-09 Ry

     iteration # 10     ecut=    60.00 Ry     beta= 0.30
     Davidson diagonalization with overlap
     ethr =  1.12E-11,  avg # of iterations =  4.8

     total cpu time spent up to now is       70.5 secs

     End of self-consistent calculation

          k = 0.0000 0.0000 0.0000 (  3279 PWs)   bands (ev):

   -45.1680 -21.8629 -21.7693 -21.7693  -7.1925  -6.0560  -5.8115  -4.4486
    -4.4486  -4.4117  -4.2952  -4.1937   4.7817   6.7409   6.7409   7.1126
     8.7119   8.7119   8.9646   9.2603   9.4473   9.4473

          k = 0.0000 0.0000 0.1604 (  3299 PWs)   bands (ev):

   -45.1678 -21.8750 -21.7688 -21.7688  -7.0915  -6.0257  -5.7752  -4.4574
    -4.4574  -4.4109  -4.2893  -4.2315   4.2910   6.7815   6.7815   7.4264
     8.5527   8.5527   8.9226   9.0870   9.5096   9.5096

          k = 0.0000 0.0000 0.3208 (  3303 PWs)   bands (ev):

   -45.1673 -21.8991 -21.7680 -21.7680  -6.8779  -5.9611  -5.7061  -4.4750
    -4.4750  -4.4094  -4.3113  -4.2783   3.6397   6.8534   6.8534   6.9789
     8.3148   8.3148   8.8415   9.5944   9.5944   9.8676

          k = 0.0000 0.0000-0.4812 (  3276 PWs)   bands (ev):

   -45.1671 -21.9110 -21.7675 -21.7675  -6.7639  -5.9264  -5.6744  -4.4838
    -4.4838  -4.4087  -4.3537  -4.2735   3.3911   6.6039   6.8831   6.8831
     8.2231   8.2231   8.8023   9.6291   9.6291  10.6226

          k = 0.0000 0.1686 0.0000 (  3294 PWs)   bands (ev):

   -45.1675 -21.8621 -21.7905 -21.7684  -7.0471  -6.0191  -5.7804  -4.4733
    -4.4470  -4.4263  -4.2974  -4.1816   4.3125   6.7713   6.8488   7.1548
     8.6383   8.7225   8.9559   9.0775   9.1645   9.5274

          k = 0.0000 0.1686 0.1604 (  3291 PWs)   bands (ev):

   -45.1673 -21.8741 -21.7900 -21.7680  -6.9533  -5.9966  -5.7422  -4.4735
    -4.4562  -4.4258  -4.2933  -4.2017   3.9832   6.6601   6.8950   7.4028
     8.3420   8.5411   8.8239   9.0960   9.1662   9.6904

          k = 0.0000 0.1686 0.3208 (  3294 PWs)   bands (ev):

   -45.1668 -21.8980 -21.7890 -21.7671  -6.7611  -5.9478  -5.6632  -4.4744
    -4.4710  -4.4249  -4.2947  -4.2376   3.4662   6.4733   6.9758   7.2187
     7.9479   8.3059   8.7594   9.2082   9.2591  10.1764

          k = 0.0000 0.1686-0.4812 (  3286 PWs)   bands (ev):

   -45.1666 -21.9098 -21.7885 -21.7666  -6.6630  -5.9203  -5.6226  -4.4834
    -4.4702  -4.4245  -4.2985  -4.2538   3.2527   6.2757   7.0079   7.0448
     7.8656   8.2216   8.8233   9.2267   9.2942  10.5258

          k = 0.0000 0.3371 0.0000 (  3308 PWs)   bands (ev):

   -45.1665 -21.8604 -21.8326 -21.7668  -6.7338  -5.9375  -5.7332  -4.5099
    -4.4554  -4.4438  -4.2935  -4.1836   3.6978   6.4002   7.0458   7.1221
     8.2724   8.3486   8.8116   8.8627   9.2794  10.1910

          k = 0.0000 0.3371 0.1604 (  3295 PWs)   bands (ev):

   -45.1663 -21.8721 -21.8321 -21.7663  -6.6694  -5.9183  -5.6872  -4.4946
    -4.4560  -4.4531  -4.2811  -4.1778   3.5062   6.3449   7.0467   7.1854
     7.9134   8.2578   8.7190   8.8644   9.1531  10.2823

          k = 0.0000 0.3371 0.3208 (  3296 PWs)   bands (ev):

   -45.1658 -21.8957 -21.8309 -21.7654  -6.5633  -5.8616  -5.5740  -4.4731
    -4.4593  -4.4557  -4.3005  -4.1325   3.1613   6.1681   6.8261   7.2878
     7.6429   8.0193   8.1276   8.8734   9.6413  10.1907

          k = 0.0000 0.3371-0.4812 (  3296 PWs)   bands (ev):

   -45.1656 -21.9073 -21.8303 -21.7649  -6.5238  -5.8221  -5.5058  -4.4826
    -4.4559  -4.4389  -4.3216  -4.1046   3.0047   5.9784   6.6977   7.3184
     7.6230   7.8047   8.0951   8.8806   9.8525  10.0692

          k = 0.0000-0.5057 0.0000 (  3326 PWs)   bands (ev):

   -45.1660 -21.8592 -21.8539 -21.7660  -6.5634  -5.8723  -5.7395  -4.5248
    -4.4697  -4.4422  -4.2735  -4.2092   3.4823   5.9941   7.2784   7.3508
     7.8064   7.9845   8.7339   8.8931   9.3116  10.9913

          k = 0.0000-0.5057 0.1604 (  3330 PWs)   bands (ev):

   -45.1658 -21.8709 -21.8532 -21.7655  -6.5299  -5.8341  -5.6932  -4.5073
    -4.4701  -4.4523  -4.2300  -4.2120   3.3253   5.9900   7.2318   7.3842
     7.4525   7.8996   8.8302   8.8617   9.0936  10.7263

          k = 0.0000-0.5057 0.3208 (  3298 PWs)   bands (ev):

   -45.1653 -21.8943 -21.8518 -21.7645  -6.4966  -5.7537  -5.5475  -4.4723
    -4.4710  -4.4687  -4.2785  -4.0962   3.0362   5.9358   6.6472   7.2574
     7.6679   7.7329   8.1071   8.8178   9.6576  10.2329

          k = 0.0000-0.5057-0.4812 (  3280 PWs)   bands (ev):

   -45.1651 -21.9060 -21.8510 -21.7640  -6.4934  -5.7111  -5.4510  -4.4822
    -4.4714  -4.4454  -4.3088  -4.0419   2.9021   5.8260   6.3837   7.3118
     7.6522   7.7825   7.8158   8.8021   9.7344  10.1484

          k = 0.1686 0.1686 0.0000 (  3291 PWs)   bands (ev):

   -45.1670 -21.8612 -21.7898 -21.7894  -6.9036  -5.9813  -5.7708  -4.4786
    -4.4635  -4.4296  -4.2746  -4.1707   3.9885   6.7252   6.9338   7.2115
     8.1726   8.2919   9.0429   9.0452   9.3525   9.7722

          k = 0.1686 0.1686 0.1604 (  3308 PWs)   bands (ev):

   -45.1668 -21.8732 -21.7893 -21.7889  -6.8144  -5.9683  -5.7337  -4.4737
    -4.4697  -4.4270  -4.2681  -4.1777   3.7845   6.6238   6.6710   7.4212
     8.0400   8.2139   8.8513   9.1638   9.3994   9.7378

          k = 0.1686 0.1686 0.3208 (  3301 PWs)   bands (ev):

   -45.1663 -21.8969 -21.7883 -21.7880  -6.6363  -5.9421  -5.6512  -4.4898
    -4.4469  -4.4160  -4.2641  -4.1962   3.3999   6.4146   6.5229   7.1302
     7.9176   7.9471   8.7704   9.2711   9.4828  10.0365

          k = 0.1686 0.1686-0.4812 (  3298 PWs)   bands (ev):

   -45.1661 -21.9087 -21.7877 -21.7875  -6.5483  -5.9289  -5.6040  -4.4956
    -4.4381  -4.3996  -4.2700  -4.2080   3.2229   6.3114   6.3386   7.0011
     7.8894   7.9443   8.7004   9.3014   9.5123  10.2152

          k = 0.1686 0.3371 0.0000 (  3313 PWs)   bands (ev):

   -45.1660 -21.8595 -21.8316 -21.7878  -6.5978  -5.9025  -5.7643  -4.5020
    -4.4528  -4.4155  -4.2520  -4.1740   3.4842   6.3994   6.9690   7.2234
     7.6453   8.1999   8.5077   9.2125   9.3878  10.2681

          k = 0.1686 0.3371 0.1604 (  3306 PWs)   bands (ev):

   -45.1658 -21.8712 -21.8310 -21.7873  -6.5302  -5.8992  -5.7268  -4.4880
    -4.4563  -4.4043  -4.2366  -4.1566   3.4164   6.3329   6.5319   7.0813
     7.6088   8.1724   8.6752   9.1669   9.3909  10.1200

          k = 0.1686 0.3371 0.3208 (  3305 PWs)   bands (ev):

   -45.1653 -21.8947 -21.8299 -21.7863  -6.4223  -5.8812  -5.6248  -4.4766
    -4.4411  -4.3753  -4.2330  -4.1058   3.2423   6.0865   6.2941   6.8144
     7.0382   7.9348   8.9673   9.1768   9.5936   9.8654

          k = 0.1686 0.3371-0.4812 (  3300 PWs)   bands (ev):

   -45.1651 -21.9063 -21.8293 -21.7859  -6.3845  -5.8664  -5.5574  -4.4768
    -4.4272  -4.3500  -4.2445  -4.0777   3.1413   5.8951   6.3003   6.6219
     6.8349   7.8921   8.9720   9.2121   9.4652   9.9421

          k = 0.1686-0.5057 0.0000 (  3318 PWs)   bands (ev):

   -45.1655 -21.8583 -21.8527 -21.7869  -6.4330  -5.8405  -5.7899  -4.5047
    -4.4450  -4.3953  -4.2382  -4.2016   3.2878   6.0132   7.0572   7.3340
     7.5586   7.9145   8.3842   9.2542   9.3862  10.5980

          k = 0.1686-0.5057 0.1604 (  3318 PWs)   bands (ev):

   -45.1653 -21.8700 -21.8521 -21.7864  -6.3911  -5.8225  -5.7572  -4.4879
    -4.4462  -4.3821  -4.2035  -4.1825   3.2592   6.0040   6.4629   6.9902
     7.5974   8.2980   8.3403   9.2116   9.3765  10.2458

          k = 0.1686-0.5057 0.3208 (  3288 PWs)   bands (ev):

   -45.1649 -21.8934 -21.8507 -21.7854  -6.3537  -5.7874  -5.6288  -4.4721
    -4.4208  -4.3609  -4.2153  -4.0700   3.1647   5.9211   6.1416   6.4190
     7.0305   8.0508   8.7986   9.1626   9.3989   9.9417

          k = 0.1686-0.5057-0.4812 (  3304 PWs)   bands (ev):

   -45.1646 -21.9050 -21.8501 -21.7850  -6.3530  -5.7704  -5.5388  -4.4710
    -4.3938  -4.3494  -4.2275  -4.0158   3.1001   5.7769   6.1230   6.2544
     6.7208   7.9948   8.8274   9.1242   9.1454  10.1564

          k = 0.3371 0.3371 0.0000 (  3313 PWs)   bands (ev):

   -45.1650 -21.8577 -21.8295 -21.8294  -6.3333  -5.8299  -5.8057  -4.4812
    -4.4344  -4.3463  -4.1777  -4.1735   3.0831   6.3915   6.4778   7.3631
     7.4752   7.6462   8.2920   9.0141   9.8777   9.9956

          k = 0.3371 0.3371 0.1604 (  3313 PWs)   bands (ev):

   -45.1648 -21.8693 -21.8291 -21.8289  -6.2560  -5.8552  -5.7937  -4.4604
    -4.4306  -4.3152  -4.1508  -4.1364   3.1778   6.2628   6.2709   6.4841
     7.1214   7.9265   8.9020   9.0523   9.6267   9.8839

          k = 0.3371 0.3371 0.3208 (  3314 PWs)   bands (ev):

   -45.1644 -21.8926 -21.8280 -21.8279  -6.1484  -5.9030  -5.7131  -4.4232
    -4.4181  -4.2539  -4.1010  -4.0557   3.3586   5.6876   5.7671   6.3196
     6.9190   7.0830   8.5721   9.6778   9.7413   9.9145

          k = 0.3371 0.3371-0.4812 (  3300 PWs)   bands (ev):

   -45.1642 -21.9042 -21.8275 -21.8274  -6.1228  -5.9256  -5.6399  -4.4195
    -4.3974  -4.2196  -4.0764  -4.0162   3.4327   5.5370   5.5498   6.1690
     6.7450   6.8914   8.1533   9.8431   9.8653  10.0234

          k = 0.3371-0.5057 0.0000 (  3308 PWs)   bands (ev):

   -45.1646 -21.8564 -21.8504 -21.8284  -6.2190  -5.8131  -5.7814  -4.4727
    -4.4107  -4.2858  -4.2091  -4.1402   2.8989   6.0139   6.5205   7.1741
     7.7066   7.7805   7.9027   8.9908   9.6729  10.0816

          k = 0.3371-0.5057 0.1604 (  3306 PWs)   bands (ev):

   -45.1643 -21.8681 -21.8499 -21.8279  -6.1353  -5.8315  -5.8059  -4.4510
    -4.4044  -4.2336  -4.1667  -4.1084   3.0421   6.0036   6.2613   6.3322
     6.9354   8.0597   8.6590   9.1279   9.2490  10.0569

          k = 0.3371-0.5057 0.3208 (  3312 PWs)   bands (ev):

   -45.1639 -21.8914 -21.8487 -21.8270  -6.0577  -5.8521  -5.7635  -4.4119
    -4.3893  -4.1613  -4.0808  -4.0143   3.3788   5.4929   5.7248   5.9718
     6.6772   7.1562   7.9342   9.7535   9.8238  10.0591

          k = 0.3371-0.5057-0.4812 (  3296 PWs)   bands (ev):

   -45.1637 -21.9029 -21.8482 -21.8265  -6.0661  -5.8741  -5.6760  -4.4012
    -4.3735  -4.1318  -4.0374  -3.9593   3.5784   5.2568   5.4561   5.9073
     6.5115   6.9028   7.3778   9.9473  10.0235  10.1793

          k =-0.5057-0.5057 0.0000 (  3312 PWs)   bands (ev):

   -45.1641 -21.8552 -21.8493 -21.8493  -6.1705  -5.7546  -5.7546  -4.4616
    -4.3623  -4.2341  -4.2341  -4.0891   2.7083   5.8674   6.3171   7.4001
     7.4001   7.8952   7.8952   8.7588   9.1837  10.3441

          k =-0.5057-0.5057 0.1604 (  3296 PWs)   bands (ev):

   -45.1639 -21.8669 -21.8488 -21.8488  -6.0638  -5.8008  -5.8008  -4.4395
    -4.3612  -4.1576  -4.1576  -4.0737   2.9002   5.8536   6.3203   6.4130
     6.4130   8.0884   8.4646   8.9520   8.9520  10.3352

          k =-0.5057-0.5057 0.3208 (  3300 PWs)   bands (ev):

   -45.1634 -21.8902 -21.8477 -21.8477  -5.8831  -5.8831  -5.8451  -4.3952
    -4.3591  -4.0358  -4.0125  -4.0125   3.4139   5.5753   5.5753   5.8015
     6.3268   7.0305   7.1161   9.8781   9.8781  10.3174

          k =-0.5057-0.5057-0.4812 (  3296 PWs)   bands (ev):

   -45.1632 -21.9018 -21.8472 -21.8472  -5.9204  -5.9204  -5.7334  -4.3730
    -4.3580  -4.0121  -3.9429  -3.9429   3.8136   5.2722   5.2722   5.7407
     6.3301   6.3660   6.6081  10.1912  10.1912  10.3086

     highest occupied level (ev):    10.9913

!    total energy              =    -333.76370813 Ry
     estimated scf accuracy    <          8.6E-10 Ry

     The total energy is the sum of the following terms:
     one-electron contribution =     -86.32770062 Ry
     hartree contribution      =      70.24430844 Ry
     xc contribution           =     -49.68734535 Ry
     ewald contribution        =    -267.99297060 Ry

     convergence has been achieved in  10 iterations

     Forces acting on atoms (cartesian axes, Ry/au):

     atom    1 type  1   force =     0.00000000    0.00000000    0.00157728
     atom    2 type  2   force =     0.00000000    0.00000000   -0.00344794
     atom    3 type  3   force =     0.00000000    0.00000000   -0.01013477
     atom    4 type  3   force =     0.00000000    0.00000000    0.00600272
     atom    5 type  3   force =     0.00000000    0.00000000    0.00600272

     Total force =     0.013753     Total SCF correction =     0.000058


     Computing stress (Cartesian axis) and pressure

          total   stress  (Ry/bohr**3)                   (kbar)     P=        1.36
   0.00001240   0.00000000   0.00000000            1.82        0.00        0.00
   0.00000000   0.00001240   0.00000000            0.00        1.82        0.00
   0.00000000   0.00000000   0.00000285            0.00        0.00        0.42

     Energy error            =      3.5E-04 Ry
     Gradient error          =      1.0E-02 Ry/Bohr
     Cell gradient error     =      1.8E+00 kbar

     number of scf cycles    =   3
     number of bfgs steps    =   2

     enthalpy           old  =    -333.7633628126 Ry
     enthalpy           new  =    -333.7637081283 Ry

     CASE: enthalpy          _new < enthalpy          _old

     new trust radius        =       0.0240064370 bohr
     new conv_thr            =       0.0000000003 Ry

     new unit-cell volume =    405.73711 a.u.^3 (    60.12404 Ang^3 )
     density =      8.37019 g/cm^3

CELL_PARAMETERS (angstrom)
   3.853605496   0.000000000   0.000000000
   0.000000000   3.853605496   0.000000000
   0.000000000   0.000000000   4.048681567

ATOMIC_POSITIONS (crystal)
Pb               0.0000000000        0.0000000000       -0.0001300350
Ti               0.5000000000        0.5000000000        0.5360073873
O                0.5000000000        0.5000000000        0.0954476408
O                0.5000000000        0.0000000000        0.6043375034
O                0.0000000000        0.5000000000        0.6043375034



     Writing config-only to output data dir ./tmp_pzt/pzt.save/ :
     XML data file
     NEW-OLD atomic charge density approx. for the potential
     New effective cutoffs (rho, wfc):  491.72   61.53

     total cpu time spent up to now is       72.2 secs

     Self-consistent Calculation

     iteration #  1     ecut=    60.00 Ry     beta= 0.30
     Davidson diagonalization with overlap
     ethr =  1.00E-06,  avg # of iterations =  7.0

     total cpu time spent up to now is       74.8 secs

     total energy              =    -333.76399132 Ry
     estimated scf accuracy    <       0.00015169 Ry

     iteration #  2     ecut=    60.00 Ry     beta= 0.30
     Davidson diagonalization with overlap
     ethr =  3.45E-07,  avg # of iterations =  3.7

     total cpu time spent up to now is       76.1 secs

     total energy              =    -333.76400135 Ry
     estimated scf accuracy    <       0.00002673 Ry

     iteration #  3     ecut=    60.00 Ry     beta= 0.30
     Davidson diagonalization with overlap
     ethr =  6.07E-08,  avg # of iterations =  4.7

     total cpu time spent up to now is       77.8 secs

     total energy              =    -333.76400636 Ry
     estimated scf accuracy    <       0.00001519 Ry

     iteration #  4     ecut=    60.00 Ry     beta= 0.30
     Davidson diagonalization with overlap
     ethr =  3.45E-08,  avg # of iterations =  4.3

     total cpu time spent up to now is       79.4 secs

     total energy              =    -333.76400897 Ry
     estimated scf accuracy    <       0.00000709 Ry

     iteration #  5     ecut=    60.00 Ry     beta= 0.30
     Davidson diagonalization with overlap
     ethr =  1.61E-08,  avg # of iterations =  2.4

     total cpu time spent up to now is       80.7 secs

     total energy              =    -333.76400878 Ry
     estimated scf accuracy    <       0.00000153 Ry

     iteration #  6     ecut=    60.00 Ry     beta= 0.30
     Davidson diagonalization with overlap
     ethr =  3.48E-09,  avg # of iterations =  6.1

     total cpu time spent up to now is       82.6 secs

     total energy              =    -333.76400923 Ry
     estimated scf accuracy    <       0.00000333 Ry

     iteration #  7     ecut=    60.00 Ry     beta= 0.30
     Davidson diagonalization with overlap
     ethr =  3.48E-09,  avg # of iterations =  4.5

     total cpu time spent up to now is       84.1 secs

     total energy              =    -333.76400966 Ry
     estimated scf accuracy    <       0.00000005 Ry

     iteration #  8     ecut=    60.00 Ry     beta= 0.30
     Davidson diagonalization with overlap
     ethr =  1.03E-10,  avg # of iterations =  6.2

     total cpu time spent up to now is       86.1 secs

     total energy              =    -333.76400970 Ry
     estimated scf accuracy    <       0.00000012 Ry

     iteration #  9     ecut=    60.00 Ry     beta= 0.30
     Davidson diagonalization with overlap
     ethr =  1.03E-10,  avg # of iterations =  3.4

     total cpu time spent up to now is       87.4 secs

     total energy              =    -333.76400969 Ry
     estimated scf accuracy    <       0.00000005 Ry

     iteration # 10     ecut=    60.00 Ry     beta= 0.30
     Davidson diagonalization with overlap
     ethr =  1.03E-10,  avg # of iterations =  4.6

     total cpu time spent up to now is       88.9 secs

     total energy              =    -333.76400971 Ry
     estimated scf accuracy    <          3.6E-09 Ry

     iteration # 11     ecut=    60.00 Ry     beta= 0.30
     Davidson diagonalization with overlap
     ethr =  8.15E-12,  avg # of iterations =  3.3

     total cpu time spent up to now is       90.3 secs

     total energy              =    -333.76400971 Ry
     estimated scf accuracy    <          2.9E-09 Ry

     iteration # 12     ecut=    60.00 Ry     beta= 0.30
     Davidson diagonalization with overlap
     ethr =  6.60E-12,  avg # of iterations =  2.1

     total cpu time spent up to now is       91.5 secs

     total energy              =    -333.76400971 Ry
     estimated scf accuracy    <          1.5E-09 Ry

     iteration # 13     ecut=    60.00 Ry     beta= 0.30
     Davidson diagonalization with overlap
     ethr =  3.34E-12,  avg # of iterations =  3.9

     total cpu time spent up to now is       92.8 secs

     End of self-consistent calculation

          k = 0.0000 0.0000 0.0000 (  3279 PWs)   bands (ev):

   -45.1468 -21.8317 -21.7483 -21.7483  -7.1774  -6.0295  -5.7753  -4.3977
    -4.3977  -4.3576  -4.2424  -4.1372   4.8432   6.7525   6.7525   7.1236
     8.7516   8.7516   8.9792   9.3152   9.4646   9.4646

          k = 0.0000 0.0000 0.1605 (  3299 PWs)   bands (ev):

   -45.1466 -21.8440 -21.7479 -21.7479  -7.0759  -5.9993  -5.7387  -4.4067
    -4.4067  -4.3568  -4.2360  -4.1750   4.3450   6.7887   6.7887   7.4427
     8.5962   8.5962   8.9371   9.1393   9.5316   9.5316

          k = 0.0000 0.0000 0.3211 (  3303 PWs)   bands (ev):

   -45.1461 -21.8684 -21.7470 -21.7470  -6.8613  -5.9350  -5.6691  -4.4246
    -4.4246  -4.3553  -4.2548  -4.2242   3.6896   6.8496   6.8496   6.9980
     8.3720   8.3720   8.8560   9.6201   9.6201   9.9152

          k = 0.0000 0.0000-0.4816 (  3276 PWs)   bands (ev):

   -45.1459 -21.8805 -21.7465 -21.7465  -6.7467  -5.9004  -5.6371  -4.4334
    -4.4334  -4.3546  -4.2970  -4.2189   3.4407   6.6211   6.8726   6.8726
     8.2890   8.2890   8.8169   9.6554   9.6554  10.6716

          k = 0.0000 0.1687 0.0000 (  3294 PWs)   bands (ev):

   -45.1463 -21.8309 -21.7696 -21.7475  -7.0317  -5.9936  -5.7443  -4.4221
    -4.3962  -4.3725  -4.2453  -4.1252   4.3591   6.8026   6.8617   7.1658
     8.6839   8.7667   8.9750   9.0911   9.1965   9.5775

          k = 0.0000 0.1687 0.1605 (  3291 PWs)   bands (ev):

   -45.1461 -21.8431 -21.7691 -21.7470  -6.9374  -5.9712  -5.7058  -4.4222
    -4.4054  -4.3720  -4.2408  -4.1455   4.0284   6.6804   6.9038   7.4203
     8.3849   8.5825   8.8639   9.1194   9.1907   9.7327

          k = 0.0000 0.1687 0.3211 (  3294 PWs)   bands (ev):

   -45.1456 -21.8673 -21.7681 -21.7461  -6.7440  -5.9227  -5.6262  -4.4239
    -4.4194  -4.3711  -4.2408  -4.1821   3.5105   6.4861   6.9736   7.2362
     7.9962   8.3591   8.7910   9.2313   9.2892  10.2272

          k = 0.0000 0.1687-0.4816 (  3286 PWs)   bands (ev):

   -45.1454 -21.8793 -21.7676 -21.7457  -6.6454  -5.8955  -5.5852  -4.4330
    -4.4182  -4.3707  -4.2440  -4.1988   3.2971   6.2884   6.9990   7.0555
     7.9217   8.2835   8.8484   9.2494   9.3250  10.5827

          k = 0.0000 0.3373 0.0000 (  3308 PWs)   bands (ev):

   -45.1453 -21.8294 -21.8115 -21.7459  -6.7168  -5.9150  -5.6978  -4.4587
    -4.4021  -4.3928  -4.2416  -4.1283   3.7341   6.4320   7.0905   7.1393
     8.3229   8.3710   8.8278   8.8981   9.3192  10.2361

          k = 0.0000 0.3373 0.1605 (  3295 PWs)   bands (ev):

   -45.1451 -21.8412 -21.8111 -21.7454  -6.6515  -5.8959  -5.6518  -4.4431
    -4.4036  -4.4014  -4.2290  -4.1225   3.5432   6.3766   7.0817   7.1994
     7.9615   8.2786   8.7508   8.9082   9.1849  10.3266

          k = 0.0000 0.3373 0.3211 (  3296 PWs)   bands (ev):

   -45.1446 -21.8650 -21.8099 -21.7444  -6.5432  -5.8407  -5.5379  -4.4225
    -4.4070  -4.4024  -4.2472  -4.0778   3.1993   6.1916   6.8679   7.2911
     7.6803   8.0440   8.1572   8.9250   9.6813  10.2397

          k = 0.0000 0.3373-0.4816 (  3296 PWs)   bands (ev):

   -45.1444 -21.8768 -21.8093 -21.7439  -6.5023  -5.8025  -5.4690  -4.4323
    -4.4026  -4.3860  -4.2680  -4.0499   3.0432   5.9977   6.7454   7.3146
     7.6545   7.8249   8.1331   8.9336   9.8914  10.1257

          k = 0.0000-0.5060 0.0000 (  3326 PWs)   bands (ev):

   -45.1448 -21.8330 -21.8279 -21.7450  -6.5442  -5.8540  -5.7032  -4.4740
    -4.4166  -4.3913  -4.2199  -4.1561   3.5161   6.0341   7.3443   7.3745
     7.8371   7.9973   8.7497   8.9337   9.3509  11.0421

          k = 0.0000-0.5060 0.1605 (  3330 PWs)   bands (ev):

   -45.1446 -21.8399 -21.8323 -21.7445  -6.5096  -5.8161  -5.6570  -4.4562
    -4.4171  -4.4015  -4.1766  -4.1582   3.3605   6.0287   7.2831   7.4180
     7.4768   7.9062   8.8627   8.9114   9.1233  10.7768

          k = 0.0000-0.5060 0.3211 (  3298 PWs)   bands (ev):

   -45.1441 -21.8636 -21.8309 -21.7435  -6.4738  -5.7366  -5.5115  -4.4218
    -4.4180  -4.4169  -4.2246  -4.0420   3.0735   5.9673   6.6899   7.2922
     7.6936   7.7312   8.1306   8.8801   9.7073  10.2793

          k = 0.0000-0.5060-0.4816 (  3280 PWs)   bands (ev):

   -45.1439 -21.8754 -21.8301 -21.7430  -6.4695  -5.6945  -5.4149  -4.4319
    -4.4184  -4.3932  -4.2546  -3.9874   2.9402   5.8501   6.4337   7.3399
     7.6478   7.8091   7.8361   8.8688   9.7982  10.1874

          k = 0.1687 0.1687 0.0000 (  3291 PWs)   bands (ev):

   -45.1458 -21.8301 -21.7689 -21.7685  -6.8882  -5.9568  -5.7349  -4.4273
    -4.4124  -4.3765  -4.2221  -4.1144   4.0288   6.7368   6.9711   7.2262
     8.2171   8.3195   9.0636   9.0955   9.3884   9.8220

          k = 0.1687 0.1687 0.1605 (  3308 PWs)   bands (ev):

   -45.1456 -21.8422 -21.7683 -21.7680  -6.7985  -5.9438  -5.6974  -4.4225
    -4.4182  -4.3741  -4.2153  -4.1215   3.8252   6.6322   6.6981   7.4384
     8.0904   8.2458   8.8992   9.1835   9.4335   9.7899

          k = 0.1687 0.1687 0.3211 (  3301 PWs)   bands (ev):

   -45.1451 -21.8662 -21.7673 -21.7671  -6.6193  -5.9176  -5.6142  -4.4384
    -4.3944  -4.3639  -4.2106  -4.1405   3.4412   6.4194   6.5421   7.1550
     7.9679   7.9749   8.8208   9.2924   9.5122  10.0935

          k = 0.1687 0.1687-0.4816 (  3298 PWs)   bands (ev):

   -45.1449 -21.8782 -21.7668 -21.7666  -6.5308  -5.9044  -5.5668  -4.4441
    -4.3850  -4.3483  -4.2159  -4.1524   3.2647   6.3153   6.3539   7.0287
     7.9487   7.9587   8.7543   9.3232   9.5400  10.2743

          k = 0.1687 0.3373 0.0000 (  3313 PWs)   bands (ev):

   -45.1448 -21.8285 -21.8105 -21.7669  -6.5809  -5.8804  -5.7302  -4.4511
    -4.4014  -4.3619  -4.1992  -4.1185   3.5171   6.4289   6.9910   7.2645
     7.6690   8.2549   8.5481   9.2425   9.4252  10.3176

          k = 0.1687 0.3373 0.1605 (  3306 PWs)   bands (ev):

   -45.1446 -21.8403 -21.8101 -21.7664  -6.5127  -5.8771  -5.6922  -4.4367
    -4.4049  -4.3508  -4.1837  -4.1012   3.4507   6.3600   6.5617   7.1007
     7.6470   8.2218   8.7241   9.1994   9.4185  10.1690

          k = 0.1687 0.3373 0.3211 (  3305 PWs)   bands (ev):

   -45.1441 -21.8640 -21.8090 -21.7654  -6.4030  -5.8599  -5.5890  -4.4249
    -4.3892  -4.3222  -4.1795  -4.0510   3.2788   6.1080   6.3198   6.8339
     7.0771   7.9810   9.0131   9.2069   9.6391   9.9036

          k = 0.1687 0.3373-0.4816 (  3300 PWs)   bands (ev):

   -45.1439 -21.8758 -21.8084 -21.7649  -6.3641  -5.8457  -5.5210  -4.4252
    -4.3749  -4.2972  -4.1907  -4.0230   3.1787   5.9143   6.3226   6.6449
     6.8726   7.9340   9.0207   9.2397   9.5166   9.9768

          k = 0.1687-0.5060 0.0000 (  3318 PWs)   bands (ev):

   -45.1443 -21.8319 -21.8271 -21.7659  -6.4140  -5.8223  -5.7557  -4.4538
    -4.3936  -4.3409  -4.1843  -4.1480   3.3184   6.0532   7.0978   7.3406
     7.6041   7.9573   8.4354   9.2758   9.4268  10.6481

          k = 0.1687-0.5060 0.1605 (  3318 PWs)   bands (ev):

   -45.1441 -21.8390 -21.8312 -21.7655  -6.3714  -5.8044  -5.7224  -4.4367
    -4.3949  -4.3279  -4.1500  -4.1284   3.2914   6.0426   6.4986   7.0051
     7.6309   8.3449   8.3958   9.2449   9.4018  10.2936

          k = 0.1687-0.5060 0.3211 (  3288 PWs)   bands (ev):

   -45.1436 -21.8626 -21.8298 -21.7645  -6.3318  -5.7693  -5.5936  -4.4206
    -4.3693  -4.3068  -4.1620  -4.0157   3.2001   5.9522   6.1700   6.4498
     7.0520   8.1018   8.8421   9.1967   9.4431   9.9771

          k = 0.1687-0.5060-0.4816 (  3304 PWs)   bands (ev):

   -45.1434 -21.8744 -21.8292 -21.7640  -6.3301  -5.7523  -5.5033  -4.4195
    -4.3420  -4.2952  -4.1743  -3.9612   3.1368   5.8021   6.1478   6.2917
     6.7412   8.0412   8.8801   9.1600   9.1787  10.1951

          k = 0.3373 0.3373 0.0000 (  3313 PWs)   bands (ev):

   -45.1438 -21.8269 -21.8085 -21.8082  -6.3139  -5.8099  -5.7762  -4.4305
    -4.3820  -4.2923  -4.1220  -4.1188   3.1105   6.4198   6.5046   7.3972
     7.5219   7.6950   8.3326   9.0689   9.9040  10.0455

          k = 0.3373 0.3373 0.1605 (  3313 PWs)   bands (ev):

   -45.1436 -21.8384 -21.8080 -21.8080  -6.2370  -5.8346  -5.7624  -4.4093
    -4.3781  -4.2613  -4.0962  -4.0813   3.2060   6.2885   6.2931   6.5215
     7.1752   7.9669   8.9602   9.0912   9.6699   9.9105

          k = 0.3373 0.3373 0.3211 (  3314 PWs)   bands (ev):

   -45.1431 -21.8619 -21.8071 -21.8070  -6.1298  -5.8814  -5.6787  -4.3706
    -4.3664  -4.2000  -4.0466  -4.0016   3.3895   5.7167   5.7904   6.3379
     6.9721   7.1284   8.6310   9.7155   9.7734   9.9448

          k = 0.3373 0.3373-0.4816 (  3300 PWs)   bands (ev):

   -45.1429 -21.8736 -21.8065 -21.8065  -6.1036  -5.9036  -5.6048  -4.3668
    -4.3454  -4.1656  -4.0221  -3.9625   3.4657   5.5611   5.5761   6.1790
     6.7935   6.9436   8.2118   9.8808   9.8902  10.0592

          k = 0.3373-0.5060 0.0000 (  3308 PWs)   bands (ev):

   -45.1433 -21.8296 -21.8254 -21.8073  -6.1952  -5.7881  -5.7636  -4.4218
    -4.3579  -4.2306  -4.1546  -4.0845   2.9238   6.0517   6.5497   7.2093
     7.7449   7.8282   7.9519   9.0384   9.7234  10.1096

          k = 0.3373-0.5060 0.1605 (  3306 PWs)   bands (ev):

   -45.1431 -21.8371 -21.8290 -21.8070  -6.1125  -5.8038  -5.7874  -4.3998
    -4.3516  -4.1786  -4.1130  -4.0530   3.0676   6.0399   6.2975   6.3552
     6.9855   8.1044   8.7118   9.1694   9.2911  10.0833

          k = 0.3373-0.5060 0.3211 (  3312 PWs)   bands (ev):

   -45.1427 -21.8606 -21.8278 -21.8061  -6.0370  -5.8325  -5.7304  -4.3599
    -4.3366  -4.1057  -4.0284  -3.9598   3.4060   5.5247   5.7530   5.9989
     6.7191   7.2065   7.9860   9.7911   9.8620  10.0869

          k = 0.3373-0.5060-0.4816 (  3296 PWs)   bands (ev):

   -45.1424 -21.8723 -21.8273 -21.8056  -6.0448  -5.8539  -5.6419  -4.3486
    -4.3210  -4.0756  -3.9856  -3.9053   3.6077   5.2843   5.4854   5.9253
     6.5533   6.9581   7.4293   9.9831  10.0502  10.2182

          k =-0.5060-0.5060 0.0000 (  3312 PWs)   bands (ev):

   -45.1428 -21.8284 -21.8284 -21.8239  -6.1414  -5.7370  -5.7370  -4.4107
    -4.3086  -4.1794  -4.1794  -4.0319   2.7307   5.9037   6.3622   7.4292
     7.4292   7.9455   7.9455   8.8055   9.2404  10.3711

          k =-0.5060-0.5060 0.1605 (  3296 PWs)   bands (ev):

   -45.1426 -21.8358 -21.8279 -21.8279  -6.0337  -5.7821  -5.7821  -4.3882
    -4.3075  -4.1039  -4.1039  -4.0162   2.9223   5.8880   6.3655   6.4494
     6.4494   8.1315   8.5172   8.9944   8.9944  10.3621

          k =-0.5060-0.5060 0.3211 (  3300 PWs)   bands (ev):

   -45.1422 -21.8594 -21.8268 -21.8268  -5.8628  -5.8628  -5.8130  -4.3433
    -4.3053  -3.9775  -3.9604  -3.9604   3.4346   5.6115   5.6115   5.8284
     6.3721   7.0737   7.1650   9.9183   9.9183  10.3442

          k =-0.5060-0.5060-0.4816 (  3296 PWs)   bands (ev):

   -45.1419 -21.8711 -21.8263 -21.8263  -5.8995  -5.8995  -5.7002  -4.3208
    -4.3042  -3.9533  -3.8913  -3.8913   3.8317   5.3082   5.3082   5.7593
     6.3754   6.4157   6.6563  10.2298  10.2298  10.3353

     highest occupied level (ev):    11.0421

!    total energy              =    -333.76400971 Ry
     estimated scf accuracy    <          1.3E-10 Ry

     The total energy is the sum of the following terms:
     one-electron contribution =     -85.88410390 Ry
     hartree contribution      =      70.08172671 Ry
     xc contribution           =     -49.68998423 Ry
     ewald contribution        =    -268.27164828 Ry

     convergence has been achieved in  13 iterations

     Forces acting on atoms (cartesian axes, Ry/au):

     atom    1 type  1   force =     0.00000000    0.00000000    0.00154374
     atom    2 type  2   force =     0.00000000    0.00000000   -0.00374542
     atom    3 type  3   force =     0.00000000    0.00000000   -0.00211352
     atom    4 type  3   force =     0.00000000    0.00000000    0.00215760
     atom    5 type  3   force =     0.00000000    0.00000000    0.00215760

     Total force =     0.005494     Total SCF correction =     0.000014


     Computing stress (Cartesian axis) and pressure

          total   stress  (Ry/bohr**3)                   (kbar)     P=        1.85
   0.00002317   0.00000000   0.00000000            3.41        0.00        0.00
   0.00000000   0.00002317   0.00000000            0.00        3.41        0.00
   0.00000000   0.00000000  -0.00000853            0.00        0.00       -1.25

     Energy error            =      3.0E-04 Ry
     Gradient error          =      3.7E-03 Ry/Bohr
     Cell gradient error     =      3.4E+00 kbar

     number of scf cycles    =   4
     number of bfgs steps    =   3

     enthalpy           old  =    -333.7637081283 Ry
     enthalpy           new  =    -333.7640097059 Ry

     CASE: enthalpy          _new < enthalpy          _old

     new trust radius        =       0.0113523927 bohr
     new conv_thr            =       0.0000000003 Ry

     new unit-cell volume =    405.63743 a.u.^3 (    60.10927 Ang^3 )
     density =      8.37225 g/cm^3

CELL_PARAMETERS (angstrom)
   3.854700089   0.000000000   0.000000000
   0.000000000   3.854700089   0.000000000
   0.000000000   0.000000000   4.045388501

ATOMIC_POSITIONS (crystal)
Pb               0.0000000000        0.0000000000        0.0002402756
Ti               0.5000000000        0.5000000000        0.5349428114
O                0.5000000000        0.5000000000        0.0939638423
O                0.5000000000        0.0000000000        0.6054265353
O                0.0000000000        0.5000000000        0.6054265353



     Writing config-only to output data dir ./tmp_pzt/pzt.save/ :
     XML data file
     NEW-OLD atomic charge density approx. for the potential
     New effective cutoffs (rho, wfc):  492.46   61.63

     total cpu time spent up to now is       94.5 secs

     Self-consistent Calculation

     iteration #  1     ecut=    60.00 Ry     beta= 0.30
     Davidson diagonalization with overlap
     ethr =  1.00E-06,  avg # of iterations =  6.1

     Threshold (ethr) on eigenvalues was too large:
     Diagonalizing with lowered threshold

     Davidson diagonalization with overlap
     ethr =  5.88E-08,  avg # of iterations =  4.3

     total cpu time spent up to now is       98.2 secs

     total energy              =    -333.76406383 Ry
     estimated scf accuracy    <       0.00003396 Ry

     iteration #  2     ecut=    60.00 Ry     beta= 0.30
     Davidson diagonalization with overlap
     ethr =  7.72E-08,  avg # of iterations =  4.2

     total cpu time spent up to now is       99.6 secs

     total energy              =    -333.76406709 Ry
     estimated scf accuracy    <       0.00000575 Ry

     iteration #  3     ecut=    60.00 Ry     beta= 0.30
     Davidson diagonalization with overlap
     ethr =  1.31E-08,  avg # of iterations =  4.0

     total cpu time spent up to now is      101.0 secs

     total energy              =    -333.76406750 Ry
     estimated scf accuracy    <       0.00000209 Ry

     iteration #  4     ecut=    60.00 Ry     beta= 0.30
     Davidson diagonalization with overlap
     ethr =  4.75E-09,  avg # of iterations =  4.8

     total cpu time spent up to now is      102.6 secs

     total energy              =    -333.76406773 Ry
     estimated scf accuracy    <       0.00000112 Ry

     iteration #  5     ecut=    60.00 Ry     beta= 0.30
     Davidson diagonalization with overlap
     ethr =  2.54E-09,  avg # of iterations =  4.3

     total cpu time spent up to now is      104.1 secs

     total energy              =    -333.76406791 Ry
     estimated scf accuracy    <       0.00000009 Ry

     iteration #  6     ecut=    60.00 Ry     beta= 0.30
     Davidson diagonalization with overlap
     ethr =  2.06E-10,  avg # of iterations =  3.9

     total cpu time spent up to now is      105.6 secs

     total energy              =    -333.76406794 Ry
     estimated scf accuracy    <       0.00000003 Ry

     iteration #  7     ecut=    60.00 Ry     beta= 0.30
     Davidson diagonalization with overlap
     ethr =  5.77E-11,  avg # of iterations =  4.5

     total cpu time spent up to now is      107.2 secs

     total energy              =    -333.76406794 Ry
     estimated scf accuracy    <          6.5E-09 Ry

     iteration #  8     ecut=    60.00 Ry     beta= 0.30
     Davidson diagonalization with overlap
     ethr =  1.48E-11,  avg # of iterations =  5.0

     total cpu time spent up to now is      108.7 secs

     total energy              =    -333.76406794 Ry
     estimated scf accuracy    <          7.7E-09 Ry

     iteration #  9     ecut=    60.00 Ry     beta= 0.30
     Davidson diagonalization with overlap
     ethr =  1.48E-11,  avg # of iterations =  5.0

     total cpu time spent up to now is      110.6 secs

     total energy              =    -333.76406794 Ry
     estimated scf accuracy    <          6.4E-09 Ry

     iteration # 10     ecut=    60.00 Ry     beta= 0.30
     Davidson diagonalization with overlap
     ethr =  1.45E-11,  avg # of iterations =  1.0

     total cpu time spent up to now is      111.7 secs

     total energy              =    -333.76406794 Ry
     estimated scf accuracy    <          3.8E-09 Ry

     iteration # 11     ecut=    60.00 Ry     beta= 0.30
     Davidson diagonalization with overlap
     ethr =  8.71E-12,  avg # of iterations =  2.5

     total cpu time spent up to now is      112.9 secs

     total energy              =    -333.76406794 Ry
     estimated scf accuracy    <          1.0E-09 Ry

     iteration # 12     ecut=    60.00 Ry     beta= 0.30
     Davidson diagonalization with overlap
     ethr =  2.36E-12,  avg # of iterations =  5.5

     total cpu time spent up to now is      114.8 secs

     total energy              =    -333.76406795 Ry
     estimated scf accuracy    <          1.4E-09 Ry

     iteration # 13     ecut=    60.00 Ry     beta= 0.30
     Davidson diagonalization with overlap
     ethr =  2.36E-12,  avg # of iterations =  1.9

     total cpu time spent up to now is      116.0 secs

     total energy              =    -333.76406794 Ry
     estimated scf accuracy    <          6.1E-10 Ry

     iteration # 14     ecut=    60.00 Ry     beta= 0.30
     Davidson diagonalization with overlap
     ethr =  1.38E-12,  avg # of iterations =  4.3

     total cpu time spent up to now is      117.4 secs

     End of self-consistent calculation

          k = 0.0000 0.0000 0.0000 (  3279 PWs)   bands (ev):

   -45.1481 -21.8317 -21.7482 -21.7482  -7.1763  -6.0221  -5.7705  -4.3887
    -4.3887  -4.3477  -4.2335  -4.1238   4.8601   6.7461   6.7461   7.1202
     8.7477   8.7477   8.9767   9.3214   9.4620   9.4620

          k = 0.0000 0.0000 0.1607 (  3299 PWs)   bands (ev):

   -45.1478 -21.8442 -21.7478 -21.7478  -7.0738  -5.9918  -5.7340  -4.3978
    -4.3978  -4.3470  -4.2269  -4.1619   4.3581   6.7791   6.7791   7.4391
     8.5968   8.5968   8.9343   9.1476   9.5312   9.5312

          k = 0.0000 0.0000 0.3214 (  3303 PWs)   bands (ev):

   -45.1474 -21.8688 -21.7469 -21.7469  -6.8572  -5.9271  -5.6646  -4.4157
    -4.4157  -4.3454  -4.2420  -4.2144   3.6997   6.8319   6.8319   6.9916
     8.3840   8.3840   8.8524   9.6221   9.6221   9.9265

          k = 0.0000 0.0000-0.4820 (  3276 PWs)   bands (ev):

   -45.1471 -21.8810 -21.7464 -21.7464  -6.7415  -5.8924  -5.6328  -4.4247
    -4.4247  -4.3446  -4.2844  -4.2089   3.4500   6.6133   6.8502   6.8502
     8.3077   8.3077   8.8129   9.6579   9.6579  10.6854

          k = 0.0000 0.1686 0.0000 (  3294 PWs)   bands (ev):

   -45.1476 -21.8310 -21.7693 -21.7474  -7.0311  -5.9871  -5.7398  -4.4128
    -4.3871  -4.3626  -4.2368  -4.1123   4.3688   6.8102   6.8564   7.1610
     8.6890   8.7656   8.9716   9.0864   9.1975   9.5868

          k = 0.0000 0.1686 0.1607 (  3291 PWs)   bands (ev):

   -45.1473 -21.8433 -21.7688 -21.7470  -6.9358  -5.9647  -5.7014  -4.4128
    -4.3965  -4.3622  -4.2319  -4.1328   4.0377   6.6797   6.8954   7.4182
     8.3893   8.5826   8.8704   9.1174   9.1914   9.7408

          k = 0.0000 0.1686 0.3214 (  3294 PWs)   bands (ev):

   -45.1469 -21.8677 -21.7678 -21.7460  -6.7403  -5.9161  -5.6222  -4.4151
    -4.4099  -4.3613  -4.2310  -4.1701   3.5189   6.4771   6.9571   7.2328
     8.0057   8.3692   8.7968   9.2275   9.2938  10.2416

          k = 0.0000 0.1686-0.4820 (  3286 PWs)   bands (ev):

   -45.1466 -21.8798 -21.7673 -21.7456  -6.6405  -5.8890  -5.5813  -4.4243
    -4.4085  -4.3608  -4.2337  -4.1873   3.3052   6.2775   6.9774   7.0487
     7.9369   8.3002   8.8517   9.2448   9.3305  10.6005

          k = 0.0000 0.3373 0.0000 (  3308 PWs)   bands (ev):

   -45.1466 -21.8294 -21.8109 -21.7458  -6.7162  -5.9116  -5.6941  -4.4493
    -4.3923  -4.3838  -4.2328  -4.1167   3.7393   6.4420   7.1068   7.1382
     8.3406   8.3693   8.8256   8.8922   9.3211  10.2380

          k = 0.0000 0.3373 0.1607 (  3295 PWs)   bands (ev):

   -45.1463 -21.8414 -21.8105 -21.7453  -6.6495  -5.8927  -5.6486  -4.4335
    -4.3944  -4.3918  -4.2200  -4.1108   3.5494   6.3858   7.0909   7.1956
     7.9759   8.2739   8.7524   8.9113   9.1896  10.3292

          k = 0.0000 0.3373 0.3214 (  3296 PWs)   bands (ev):

   -45.1459 -21.8654 -21.8093 -21.7443  -6.5385  -5.8384  -5.5351  -4.4137
    -4.3970  -4.3926  -4.2376  -4.0663   3.2067   6.1916   6.8807   7.2784
     7.6887   8.0447   8.1580   8.9372   9.6872  10.2472

          k = 0.0000 0.3373-0.4820 (  3296 PWs)   bands (ev):

   -45.1457 -21.8773 -21.8087 -21.7438  -6.4964  -5.8006  -5.4663  -4.4235
    -4.3928  -4.3757  -4.2582  -4.0384   3.0510   5.9918   6.7634   7.2959
     7.6586   7.8258   8.1401   8.9481   9.8872  10.1451

          k = 0.0000-0.5059 0.0000 (  3326 PWs)   bands (ev):

   -45.1461 -21.8322 -21.8280 -21.7450  -6.5426  -5.8541  -5.6993  -4.4649
    -4.4069  -4.3822  -4.2097  -4.1462   3.5199   6.0521   7.3713   7.3805
     7.8468   7.9881   8.7472   8.9293   9.3528  11.0449

          k = 0.0000-0.5059 0.1607 (  3330 PWs)   bands (ev):

   -45.1459 -21.8400 -21.8315 -21.7445  -6.5062  -5.8163  -5.6541  -4.4468
    -4.4073  -4.3925  -4.1667  -4.1476   3.3660   6.0455   7.3007   7.4261
     7.4835   7.8914   8.8644   8.9150   9.1294  10.7786

          k = 0.0000-0.5059 0.3214 (  3298 PWs)   bands (ev):

   -45.1454 -21.8640 -21.8301 -21.7435  -6.4678  -5.7370  -5.5098  -4.4130
    -4.4082  -4.4070  -4.2145  -4.0308   3.0814   5.9769   6.7008   7.3002
     7.7019   7.7090   8.1314   8.8950   9.7228  10.2780

          k = 0.0000-0.5059-0.4820 (  3280 PWs)   bands (ev):

   -45.1452 -21.8759 -21.8293 -21.7430  -6.4626  -5.6951  -5.4134  -4.4231
    -4.4087  -4.3830  -4.2445  -3.9759   2.9489   5.8508   6.4517   7.3450
     7.6232   7.8182   7.8364   8.8877   9.8113  10.1902

          k = 0.1686 0.1686 0.0000 (  3291 PWs)   bands (ev):

   -45.1471 -21.8301 -21.7686 -21.7682  -6.8883  -5.9512  -5.7306  -4.4181
    -4.4031  -4.3669  -4.2134  -4.1017   4.0359   6.7326   6.9833   7.2209
     8.2213   8.3228   9.0638   9.1001   9.3967   9.8259

          k = 0.1686 0.1686 0.1607 (  3308 PWs)   bands (ev):

   -45.1468 -21.8424 -21.7681 -21.7677  -6.7977  -5.9381  -5.6933  -4.4132
    -4.4088  -4.3644  -4.2065  -4.1090   3.8328   6.6249   6.7024   7.4342
     8.1014   8.2504   8.9033   9.1819   9.4398   9.7992

          k = 0.1686 0.1686 0.3214 (  3301 PWs)   bands (ev):

   -45.1464 -21.8666 -21.7670 -21.7668  -6.6164  -5.9117  -5.6105  -4.4291
    -4.3848  -4.3544  -4.2014  -4.1282   3.4489   6.4082   6.5373   7.1569
     7.9652   7.9934   8.8265   9.2915   9.5143  10.1105

          k = 0.1686 0.1686-0.4820 (  3298 PWs)   bands (ev):

   -45.1461 -21.8787 -21.7665 -21.7663  -6.5269  -5.8985  -5.5633  -4.4348
    -4.3752  -4.3388  -4.2064  -4.1403   3.2722   6.3029   6.3437   7.0353
     7.9520   7.9696   8.7627   9.3226   9.5408  10.2921

          k = 0.1686 0.3373 0.0000 (  3313 PWs)   bands (ev):

   -45.1461 -21.8286 -21.8099 -21.7666  -6.5817  -5.8773  -5.7266  -4.4420
    -4.3921  -4.3519  -4.1903  -4.1068   3.5214   6.4383   6.9905   7.2799
     7.6716   8.2640   8.5602   9.2430   9.4315  10.3207

          k = 0.1686 0.3373 0.1607 (  3306 PWs)   bands (ev):

   -45.1459 -21.8405 -21.8094 -21.7661  -6.5122  -5.8741  -5.6890  -4.4274
    -4.3957  -4.3409  -4.1747  -4.0896   3.4559   6.3668   6.5685   7.0997
     7.6550   8.2334   8.7385   9.2003   9.4201  10.1740

          k = 0.1686 0.3373 0.3214 (  3305 PWs)   bands (ev):

   -45.1454 -21.8644 -21.8083 -21.7651  -6.3999  -5.8574  -5.5863  -4.4156
    -4.3798  -4.3123  -4.1699  -4.0395   3.2855   6.1071   6.3249   6.8315
     7.0871   7.9945   9.0200   9.2087   9.6482   9.9066

          k = 0.1686 0.3373-0.4820 (  3300 PWs)   bands (ev):

   -45.1452 -21.8763 -21.8078 -21.7646  -6.3597  -5.8434  -5.5183  -4.4159
    -4.3653  -4.2873  -4.1809  -4.0115   3.1860   5.9098   6.3247   6.6433
     6.8862   7.9457   9.0242   9.2434   9.5260   9.9802

          k = 0.1686-0.5059 0.0000 (  3318 PWs)   bands (ev):

   -45.1456 -21.8311 -21.8271 -21.7657  -6.4142  -5.8225  -5.7516  -4.4448
    -4.3843  -4.3308  -4.1745  -4.1380   3.3215   6.0710   7.1073   7.3347
     7.6254   7.9710   8.4378   9.2749   9.4327  10.6540

          k = 0.1686-0.5059 0.1607 (  3318 PWs)   bands (ev):

   -45.1454 -21.8391 -21.8304 -21.7652  -6.3698  -5.8045  -5.7194  -4.4274
    -4.3857  -4.3180  -4.1400  -4.1181   3.2958   6.0593   6.5093   7.0014
     7.6362   8.3624   8.4070   9.2455   9.4037  10.2971

          k = 0.1686-0.5059 0.3214 (  3288 PWs)   bands (ev):

   -45.1449 -21.8630 -21.8291 -21.7642  -6.3274  -5.7695  -5.5918  -4.4112
    -4.3599  -4.2972  -4.1520  -4.0047   3.2070   5.9607   6.1782   6.4551
     7.0482   8.1180   8.8540   9.1950   9.4519   9.9772

          k = 0.1686-0.5059-0.4820 (  3304 PWs)   bands (ev):

   -45.1447 -21.8749 -21.8284 -21.7637  -6.3247  -5.7525  -5.5015  -4.4102
    -4.3325  -4.2857  -4.1642  -3.9499   3.1450   5.8025   6.1550   6.3031
     6.7380   8.0563   8.8904   9.1588   9.1833  10.1993

          k = 0.3373 0.3373 0.0000 (  3313 PWs)   bands (ev):

   -45.1451 -21.8269 -21.8079 -21.8076  -6.3167  -5.8082  -5.7732  -4.4215
    -4.3725  -4.2821  -4.1106  -4.1099   3.1130   6.4260   6.5154   7.4015
     7.5410   7.6995   8.3524   9.0833   9.9058  10.0529

          k = 0.3373 0.3373 0.1607 (  3313 PWs)   bands (ev):

   -45.1449 -21.8386 -21.8074 -21.8074  -6.2388  -5.8328  -5.7596  -4.4002
    -4.3687  -4.2513  -4.0871  -4.0700   3.2093   6.2928   6.2977   6.5324
     7.1943   7.9750   8.9789   9.1011   9.6729   9.9124

          k = 0.3373 0.3373 0.3214 (  3314 PWs)   bands (ev):

   -45.1444 -21.8623 -21.8064 -21.8064  -6.1292  -5.8793  -5.6764  -4.3611
    -4.3570  -4.1904  -4.0370  -3.9906   3.3946   5.7241   5.7918   6.3359
     6.9963   7.1394   8.6446   9.7177   9.7773   9.9472

          k = 0.3373 0.3373-0.4820 (  3300 PWs)   bands (ev):

   -45.1442 -21.8741 -21.8059 -21.8059  -6.1021  -5.9014  -5.6024  -4.3574
    -4.3359  -4.1561  -4.0121  -3.9516   3.4719   5.5624   5.5835   6.1695
     6.8083   6.9682   8.2235   9.8821   9.8921  10.0611

          k = 0.3373-0.5059 0.0000 (  3308 PWs)   bands (ev):

   -45.1446 -21.8288 -21.8254 -21.8067  -6.1979  -5.7854  -5.7639  -4.4129
    -4.3484  -4.2197  -4.1441  -4.0754   2.9257   6.0666   6.5618   7.2120
     7.7439   7.8508   7.9729   9.0506   9.7349  10.1129

          k = 0.3373-0.5059 0.1607 (  3306 PWs)   bands (ev):

   -45.1444 -21.8373 -21.8282 -21.8064  -6.1141  -5.8012  -5.7875  -4.3907
    -4.3421  -4.1683  -4.1027  -4.0434   3.0700   6.0536   6.3065   6.3605
     7.0031   8.1126   8.7319   9.1786   9.2963  10.0853

          k = 0.3373-0.5059 0.3214 (  3312 PWs)   bands (ev):

   -45.1439 -21.8610 -21.8271 -21.8055  -6.0357  -5.8322  -5.7287  -4.3505
    -4.3272  -4.0961  -4.0185  -3.9495   3.4103   5.5333   5.7565   6.0061
     6.7354   7.2208   7.9972   9.7943   9.8684  10.0890

          k = 0.3373-0.5059-0.4820 (  3296 PWs)   bands (ev):

   -45.1437 -21.8729 -21.8265 -21.8050  -6.0427  -5.8535  -5.6399  -4.3391
    -4.3115  -4.0663  -3.9759  -3.8947   3.6136   5.2921   5.4888   5.9252
     6.5675   6.9801   7.4379   9.9837  10.0528  10.2226

          k =-0.5059-0.5059 0.0000 (  3312 PWs)   bands (ev):

   -45.1441 -21.8277 -21.8277 -21.8240  -6.1431  -5.7374  -5.7374  -4.4018
    -4.2991  -4.1686  -4.1686  -4.0230   2.7319   5.9168   6.3869   7.4249
     7.4249   7.9695   7.9695   8.8157   9.2609  10.3733

          k =-0.5059-0.5059 0.1607 (  3296 PWs)   bands (ev):

   -45.1439 -21.8359 -21.8271 -21.8271  -6.0347  -5.7821  -5.7821  -4.3792
    -4.2980  -4.0934  -4.0934  -4.0072   2.9240   5.8999   6.3903   6.4561
     6.4561   8.1393   8.5341   9.0059   9.0059  10.3643

          k =-0.5059-0.5059 0.3214 (  3300 PWs)   bands (ev):

   -45.1434 -21.8598 -21.8261 -21.8261  -5.8624  -5.8624  -5.8121  -4.3339
    -4.2958  -3.9682  -3.9504  -3.9504   3.4374   5.6193   5.6193   5.8351
     6.3970   7.0814   7.1771   9.9249   9.9249  10.3463

          k =-0.5059-0.5059-0.4820 (  3296 PWs)   bands (ev):

   -45.1432 -21.8717 -21.8255 -21.8255  -5.8989  -5.8989  -5.6984  -4.3113
    -4.2947  -3.9438  -3.8815  -3.8815   3.8355   5.3161   5.3161   5.7601
     6.4004   6.4255   6.6677  10.2338  10.2338  10.3373

     highest occupied level (ev):    11.0449

!    total energy              =    -333.76406795 Ry
     estimated scf accuracy    <          3.0E-11 Ry

     The total energy is the sum of the following terms:
     one-electron contribution =     -85.76408577 Ry
     hartree contribution      =      70.02889889 Ry
     xc contribution           =     -49.68869584 Ry
     ewald contribution        =    -268.34018523 Ry

     convergence has been achieved in  14 iterations

     Forces acting on atoms (cartesian axes, Ry/au):

     atom    1 type  1   force =     0.00000000    0.00000000    0.00076211
     atom    2 type  2   force =     0.00000000    0.00000000   -0.00171893
     atom    3 type  3   force =     0.00000000    0.00000000    0.00076257
     atom    4 type  3   force =     0.00000000    0.00000000    0.00009712
     atom    5 type  3   force =     0.00000000    0.00000000    0.00009712

     Total force =     0.002034     Total SCF correction =     0.000011


     Computing stress (Cartesian axis) and pressure

          total   stress  (Ry/bohr**3)                   (kbar)     P=        0.69
   0.00001093   0.00000000   0.00000000            1.61        0.00        0.00
   0.00000000   0.00001093   0.00000000            0.00        1.61        0.00
   0.00000000   0.00000000  -0.00000778            0.00        0.00       -1.14

     Energy error            =      5.8E-05 Ry
     Gradient error          =      1.7E-03 Ry/Bohr
     Cell gradient error     =      1.6E+00 kbar

     number of scf cycles    =   5
     number of bfgs steps    =   4

     enthalpy           old  =    -333.7640097059 Ry
     enthalpy           new  =    -333.7640679451 Ry

     CASE: enthalpy          _new < enthalpy          _old

     new trust radius        =       0.0023788515 bohr
     new conv_thr            =            1.0E-10 Ry

     new unit-cell volume =    405.74949 a.u.^3 (    60.12587 Ang^3 )
     density =      8.36993 g/cm^3

CELL_PARAMETERS (angstrom)
   3.855739967   0.000000000   0.000000000
   0.000000000   3.855739967   0.000000000
   0.000000000   0.000000000   4.044323654

ATOMIC_POSITIONS (crystal)
Pb               0.0000000000        0.0000000000        0.0003725338
Ti               0.5000000000        0.5000000000        0.5346316339
O                0.5000000000        0.5000000000        0.0938844043
O                0.5000000000        0.0000000000        0.6055557140
O                0.0000000000        0.5000000000        0.6055557140



     Writing config-only to output data dir ./tmp_pzt/pzt.save/ :
     XML data file
     NEW-OLD atomic charge density approx. for the potential
     New effective cutoffs (rho, wfc):  492.72   61.66

     total cpu time spent up to now is      119.1 secs

     Self-consistent Calculation

     iteration #  1     ecut=    60.00 Ry     beta= 0.30
     Davidson diagonalization with overlap
     ethr =  1.00E-06,  avg # of iterations =  5.0

     Threshold (ethr) on eigenvalues was too large:
     Diagonalizing with lowered threshold

     Davidson diagonalization with overlap
     ethr =  2.37E-09,  avg # of iterations =  6.8

     total cpu time spent up to now is      123.0 secs

     total energy              =    -333.76407312 Ry
     estimated scf accuracy    <       0.00000131 Ry

     iteration #  2     ecut=    60.00 Ry     beta= 0.30
     Davidson diagonalization with overlap
     ethr =  2.98E-09,  avg # of iterations =  3.3

     total cpu time spent up to now is      124.4 secs

     total energy              =    -333.76407319 Ry
     estimated scf accuracy    <       0.00000028 Ry

     iteration #  3     ecut=    60.00 Ry     beta= 0.30
     Davidson diagonalization with overlap
     ethr =  6.39E-10,  avg # of iterations =  4.4

     total cpu time spent up to now is      125.9 secs

     total energy              =    -333.76407319 Ry
     estimated scf accuracy    <       0.00000019 Ry

     iteration #  4     ecut=    60.00 Ry     beta= 0.30
     Davidson diagonalization with overlap
     ethr =  4.23E-10,  avg # of iterations =  4.3

     total cpu time spent up to now is      127.4 secs

     total energy              =    -333.76407322 Ry
     estimated scf accuracy    <       0.00000006 Ry

     iteration #  5     ecut=    60.00 Ry     beta= 0.30
     Davidson diagonalization with overlap
     ethr =  1.41E-10,  avg # of iterations =  2.9

     total cpu time spent up to now is      128.7 secs

     total energy              =    -333.76407321 Ry
     estimated scf accuracy    <       0.00000004 Ry

     iteration #  6     ecut=    60.00 Ry     beta= 0.30
     Davidson diagonalization with overlap
     ethr =  9.44E-11,  avg # of iterations =  4.1

     total cpu time spent up to now is      130.1 secs

     total energy              =    -333.76407321 Ry
     estimated scf accuracy    <          7.5E-10 Ry

     iteration #  7     ecut=    60.00 Ry     beta= 0.30
     Davidson diagonalization with overlap
     ethr =  1.71E-12,  avg # of iterations =  6.0

     total cpu time spent up to now is      132.1 secs

     total energy              =    -333.76407321 Ry
     estimated scf accuracy    <          2.0E-09 Ry

     iteration #  8     ecut=    60.00 Ry     beta= 0.30
     Davidson diagonalization with overlap
     ethr =  1.71E-12,  avg # of iterations =  4.4

     total cpu time spent up to now is      133.7 secs

     total energy              =    -333.76407321 Ry
     estimated scf accuracy    <          1.0E-10 Ry

     iteration #  9     ecut=    60.00 Ry     beta= 0.30
     Davidson diagonalization with overlap
     ethr =  2.31E-13,  avg # of iterations =  5.8

     total cpu time spent up to now is      135.7 secs

     total energy              =    -333.76407321 Ry
     estimated scf accuracy    <          2.5E-10 Ry

     iteration # 10     ecut=    60.00 Ry     beta= 0.30
     Davidson diagonalization with overlap
     ethr =  2.31E-13,  avg # of iterations =  4.6

     total cpu time spent up to now is      137.4 secs

     End of self-consistent calculation

          k = 0.0000 0.0000 0.0000 (  3279 PWs)   bands (ev):

   -45.1514 -21.8369 -21.7508 -21.7508  -7.1779  -6.0227  -5.7750  -4.3937
    -4.3937  -4.3530  -4.2391  -4.1278   4.8571   6.7415   6.7415   7.1172
     8.7374   8.7374   8.9736   9.3136   9.4583   9.4583

          k = 0.0000 0.0000 0.1607 (  3299 PWs)   bands (ev):

   -45.1511 -21.8494 -21.7504 -21.7504  -7.0751  -5.9923  -5.7387  -4.4027
    -4.4027  -4.3522  -4.2323  -4.1660   4.3545   6.7737   6.7737   7.4350
     8.5881   8.5881   8.9310   9.1415   9.5276   9.5276

          k = 0.0000 0.0000 0.3214 (  3303 PWs)   bands (ev):

   -45.1507 -21.8740 -21.7495 -21.7495  -6.8574  -5.9274  -5.6695  -4.4207
    -4.4207  -4.3507  -4.2463  -4.2198   3.6951   6.8246   6.8246   6.9852
     8.3786   8.3786   8.8486   9.6189   9.6189   9.9235

          k = 0.0000 0.0000-0.4822 (  3276 PWs)   bands (ev):

   -45.1504 -21.8863 -21.7490 -21.7490  -6.7411  -5.8926  -5.6379  -4.4297
    -4.4297  -4.3499  -4.2889  -4.2142   3.4450   6.6065   6.8416   6.8416
     8.3040   8.3040   8.8089   9.6549   9.6549  10.6837

          k = 0.0000 0.1686 0.0000 (  3294 PWs)   bands (ev):

   -45.1509 -21.8361 -21.7718 -21.7500  -7.0330  -5.9880  -5.7445  -4.4177
    -4.3921  -4.3678  -4.2423  -4.1164   4.3652   6.8087   6.8522   7.1572
     8.6826   8.7557   8.9667   9.0824   9.1925   9.5817

          k = 0.0000 0.1686 0.1607 (  3291 PWs)   bands (ev):

   -45.1507 -21.8484 -21.7713 -21.7496  -6.9373  -5.9655  -5.7062  -4.4177
    -4.4014  -4.3674  -4.2373  -4.1370   4.0340   6.6762   6.8904   7.4145
     8.3833   8.5743   8.8662   9.1123   9.1877   9.7369

          k = 0.0000 0.1686 0.3214 (  3294 PWs)   bands (ev):

   -45.1502 -21.8729 -21.7703 -21.7486  -6.7408  -5.9168  -5.6272  -4.4201
    -4.4148  -4.3665  -4.2363  -4.1746   3.5147   6.4707   6.9500   7.2284
     8.0010   8.3638   8.7942   9.2216   9.2909  10.2394

          k = 0.0000 0.1686-0.4822 (  3286 PWs)   bands (ev):

   -45.1499 -21.8851 -21.7698 -21.7482  -6.6404  -5.8896  -5.5866  -4.4293
    -4.4134  -4.3660  -4.2388  -4.1919   3.3007   6.2698   6.9690   7.0439
     7.9337   8.2965   8.8493   9.2385   9.3279  10.5989

          k = 0.0000 0.3372 0.0000 (  3308 PWs)   bands (ev):

   -45.1499 -21.8345 -21.8133 -21.7484  -6.7185  -5.9133  -5.6990  -4.4542
    -4.3974  -4.3887  -4.2382  -4.1213   3.7353   6.4416   7.1069   7.1352
     8.3400   8.3652   8.8221   8.8815   9.3145  10.2303

          k = 0.0000 0.3372 0.1607 (  3295 PWs)   bands (ev):

   -45.1497 -21.8465 -21.8128 -21.7479  -6.6512  -5.8945  -5.6538  -4.4384
    -4.3994  -4.3969  -4.2253  -4.1154   3.5457   6.3850   7.0893   7.1919
     7.9742   8.2683   8.7474   8.9039   9.1862  10.3221

          k = 0.0000 0.3372 0.3214 (  3296 PWs)   bands (ev):

   -45.1492 -21.8706 -21.8116 -21.7469  -6.5391  -5.8403  -5.5407  -4.4187
    -4.4017  -4.3978  -4.2428  -4.0708   3.2033   6.1875   6.8794   7.2722
     7.6861   8.0409   8.1532   8.9331   9.6826  10.2419

          k = 0.0000 0.3372-0.4822 (  3296 PWs)   bands (ev):

   -45.1490 -21.8826 -21.8110 -21.7464  -6.4966  -5.8025  -5.4720  -4.4285
    -4.3980  -4.3804  -4.2634  -4.0429   3.0476   5.9853   6.7637   7.2879
     7.6550   7.8232   8.1368   8.9450   9.8774  10.1444

          k = 0.0000-0.5057 0.0000 (  3326 PWs)   bands (ev):

   -45.1494 -21.8345 -21.8331 -21.7476  -6.5448  -5.8567  -5.7042  -4.4698
    -4.4120  -4.3872  -4.2148  -4.1513   3.5157   6.0540   7.3720   7.3796
     7.8467   7.9822   8.7437   8.9184   9.3463  11.0365

          k = 0.0000-0.5057 0.1607 (  3330 PWs)   bands (ev):

   -45.1492 -21.8452 -21.8338 -21.7471  -6.5077  -5.8189  -5.6596  -4.4516
    -4.4124  -4.3975  -4.1718  -4.1525   3.3622   6.0471   7.2997   7.4242
     7.4829   7.8837   8.8594   8.9065   9.1272  10.7698

          k = 0.0000-0.5057 0.3214 (  3298 PWs)   bands (ev):

   -45.1487 -21.8693 -21.8323 -21.7461  -6.4683  -5.7395  -5.5160  -4.4180
    -4.4133  -4.4118  -4.2196  -4.0354   3.0783   5.9761   6.6982   7.2981
     7.6989   7.7019   8.1280   8.8899   9.7214  10.2682

          k = 0.0000-0.5057-0.4822 (  3280 PWs)   bands (ev):

   -45.1485 -21.8812 -21.8316 -21.7456  -6.4629  -5.6976  -5.4196  -4.4281
    -4.4138  -4.3877  -4.2496  -3.9804   2.9461   5.8467   6.4512   7.3428
     7.6122   7.8186   7.8334   8.8839   9.8053  10.1844

          k = 0.1686 0.1686 0.0000 (  3291 PWs)   bands (ev):

   -45.1504 -21.8353 -21.7711 -21.7707  -6.8906  -5.9522  -5.7353  -4.4231
    -4.4081  -4.3720  -4.2190  -4.1060   4.0322   6.7293   6.9829   7.2162
     8.2143   8.3197   9.0607   9.0925   9.3945   9.8177

          k = 0.1686 0.1686 0.1607 (  3308 PWs)   bands (ev):

   -45.1502 -21.8475 -21.7706 -21.7703  -6.7996  -5.9391  -5.6981  -4.4182
    -4.4138  -4.3695  -4.2120  -4.1134   3.8290   6.6205   6.6999   7.4295
     8.0969   8.2472   8.8958   9.1780   9.4370   9.7937

          k = 0.1686 0.1686 0.3214 (  3301 PWs)   bands (ev):

   -45.1497 -21.8719 -21.7695 -21.7693  -6.6173  -5.9127  -5.6158  -4.4341
    -4.3898  -4.3594  -4.2068  -4.1327   3.4449   6.4022   6.5317   7.1537
     7.9605   7.9916   8.8193   9.2877   9.5102  10.1083

          k = 0.1686 0.1686-0.4822 (  3298 PWs)   bands (ev):

   -45.1495 -21.8840 -21.7690 -21.7688  -6.5272  -5.8994  -5.5687  -4.4398
    -4.3803  -4.3436  -4.2118  -4.1448   3.2680   6.2963   6.3360   7.0340
     7.9465   7.9687   8.7561   9.3187   9.5365  10.2900

          k = 0.1686 0.3372 0.0000 (  3313 PWs)   bands (ev):

   -45.1494 -21.8337 -21.8123 -21.7691  -6.5847  -5.8791  -5.7312  -4.4470
    -4.3971  -4.3571  -4.1959  -4.1115   3.5176   6.4381   6.9868   7.2804
     7.6689   8.2573   8.5591   9.2379   9.4278  10.3126

          k = 0.1686 0.3372 0.1607 (  3306 PWs)   bands (ev):

   -45.1492 -21.8456 -21.8118 -21.7686  -6.5147  -5.8760  -5.6940  -4.4323
    -4.4007  -4.3460  -4.1801  -4.0942   3.4522   6.3656   6.5665   7.0962
     7.6519   8.2298   8.7366   9.1948   9.4161  10.1671

          k = 0.1686 0.3372 0.3214 (  3305 PWs)   bands (ev):

   -45.1487 -21.8696 -21.8107 -21.7676  -6.4011  -5.8594  -5.5918  -4.4206
    -4.3848  -4.3174  -4.1752  -4.0441   3.2822   6.1028   6.3229   6.8273
     7.0848   7.9926   9.0147   9.2043   9.6441   9.9010

          k = 0.1686 0.3372-0.4822 (  3300 PWs)   bands (ev):

   -45.1485 -21.8816 -21.8101 -21.7671  -6.3606  -5.8454  -5.5240  -4.4209
    -4.3704  -4.2923  -4.1861  -4.0161   3.1827   5.9040   6.3221   6.6387
     6.8861   7.9439   9.0163   9.2408   9.5207   9.9755

          k = 0.1686-0.5057 0.0000 (  3318 PWs)   bands (ev):

   -45.1489 -21.8334 -21.8323 -21.7682  -6.4173  -5.8251  -5.7560  -4.4497
    -4.3893  -4.3360  -4.1798  -4.1430   3.3176   6.0729   7.1045   7.3317
     7.6276   7.9703   8.4283   9.2708   9.4281  10.6474

          k = 0.1686-0.5057 0.1607 (  3318 PWs)   bands (ev):

   -45.1487 -21.8443 -21.8327 -21.7678  -6.3721  -5.8071  -5.7244  -4.4324
    -4.3907  -4.3233  -4.1450  -4.1232   3.2921   6.0608   6.5082   6.9975
     7.6329   8.3626   8.4016   9.2396   9.4003  10.2897

          k = 0.1686-0.5057 0.3214 (  3288 PWs)   bands (ev):

   -45.1482 -21.8683 -21.8313 -21.7667  -6.3285  -5.7721  -5.5977  -4.4162
    -4.3649  -4.3026  -4.1570  -4.0094   3.2039   5.9594   6.1773   6.4523
     7.0424   8.1167   8.8522   9.1875   9.4480   9.9705

          k = 0.1686-0.5057-0.4822 (  3304 PWs)   bands (ev):

   -45.1480 -21.8802 -21.8306 -21.7663  -6.3256  -5.7551  -5.5074  -4.4153
    -4.3374  -4.2912  -4.1692  -3.9545   3.1422   5.7980   6.1545   6.3022
     6.7327   8.0553   8.8856   9.1510   9.1795  10.1942

          k = 0.3372 0.3372 0.0000 (  3313 PWs)   bands (ev):

   -45.1484 -21.8320 -21.8103 -21.8101  -6.3214  -5.8102  -5.7769  -4.4266
    -4.3776  -4.2872  -4.1159  -4.1155   3.1095   6.4244   6.5166   7.3978
     7.5415   7.6919   8.3550   9.0801   9.9023  10.0471

          k = 0.3372 0.3372 0.1607 (  3313 PWs)   bands (ev):

   -45.1482 -21.8437 -21.8098 -21.8098  -6.2427  -5.8349  -5.7639  -4.4052
    -4.3738  -4.2565  -4.0929  -4.0748   3.2060   6.2905   6.2964   6.5311
     7.1935   7.9717   8.9772   9.0989   9.6660   9.9089

          k = 0.3372 0.3372 0.3214 (  3314 PWs)   bands (ev):

   -45.1478 -21.8676 -21.8088 -21.8087  -6.1316  -5.8815  -5.6818  -4.3663
    -4.3620  -4.1957  -4.0424  -3.9952   3.3917   5.7225   5.7882   6.3322
     6.9986   7.1363   8.6400   9.7116   9.7736   9.9430

          k = 0.3372 0.3372-0.4822 (  3300 PWs)   bands (ev):

   -45.1475 -21.8794 -21.8083 -21.8082  -6.1041  -5.9036  -5.6079  -4.3626
    -4.3409  -4.1616  -4.0174  -3.9562   3.4691   5.5585   5.5826   6.1634
     6.8065   6.9709   8.2178   9.8755   9.8892  10.0553

          k = 0.3372-0.5057 0.0000 (  3308 PWs)   bands (ev):

   -45.1480 -21.8311 -21.8305 -21.8091  -6.2036  -5.7883  -5.7665  -4.4180
    -4.3536  -4.2248  -4.1491  -4.0815   2.9223   6.0674   6.5632   7.2068
     7.7363   7.8532   7.9736   9.0478   9.7312  10.1100

          k = 0.3372-0.5057 0.1607 (  3306 PWs)   bands (ev):

   -45.1477 -21.8424 -21.8305 -21.8088  -6.1188  -5.8048  -5.7901  -4.3957
    -4.3473  -4.1735  -4.1076  -4.0492   3.0668   6.0541   6.3041   6.3593
     7.0024   8.1082   8.7323   9.1753   9.2908  10.0821

          k = 0.3372-0.5057 0.3214 (  3312 PWs)   bands (ev):

   -45.1473 -21.8663 -21.8293 -21.8078  -6.0382  -5.8349  -5.7341  -4.3555
    -4.3324  -4.1020  -4.0233  -3.9546   3.4079   5.5316   5.7529   6.0053
     6.7359   7.2182   7.9929   9.7888   9.8645  10.0854

          k = 0.3372-0.5057-0.4822 (  3296 PWs)   bands (ev):

   -45.1470 -21.8782 -21.8287 -21.8073  -6.0449  -5.8563  -5.6454  -4.3442
    -4.3166  -4.0723  -3.9806  -3.8996   3.6116   5.2910   5.4848   5.9225
     6.5666   6.9807   7.4321   9.9771  10.0498  10.2173

          k =-0.5057-0.5057 0.0000 (  3312 PWs)   bands (ev):

   -45.1475 -21.8299 -21.8299 -21.8291  -6.1497  -5.7399  -5.7399  -4.4069
    -4.3044  -4.1735  -4.1735  -4.0295   2.7287   5.9169   6.3913   7.4174
     7.4174   7.9716   7.9716   8.8121   9.2610  10.3701

          k =-0.5057-0.5057 0.1607 (  3296 PWs)   bands (ev):

   -45.1472 -21.8411 -21.8294 -21.8294  -6.0409  -5.7848  -5.7848  -4.3842
    -4.3033  -4.0983  -4.0983  -4.0137   2.9211   5.8998   6.3947   6.4525
     6.4525   8.1350   8.5330   9.0035   9.0035  10.3610

          k =-0.5057-0.5057 0.3214 (  3300 PWs)   bands (ev):

   -45.1468 -21.8651 -21.8283 -21.8283  -5.8652  -5.8652  -5.8178  -4.3389
    -4.3011  -3.9748  -3.9551  -3.9551   3.4357   5.6160   5.6160   5.8341
     6.4015   7.0768   7.1739   9.9206   9.9206  10.3430

          k =-0.5057-0.5057-0.4822 (  3296 PWs)   bands (ev):

   -45.1465 -21.8770 -21.8278 -21.8278  -5.9017  -5.9017  -5.7037  -4.3163
    -4.3000  -3.9504  -3.8862  -3.8862   3.8350   5.3129   5.3129   5.7578
     6.4049   6.4207   6.6639  10.2284  10.2284  10.3340

     highest occupied level (ev):    11.0365

!    total energy              =    -333.76407321 Ry
     estimated scf accuracy    <          1.2E-12 Ry

     The total energy is the sum of the following terms:
     one-electron contribution =     -85.78472027 Ry
     hartree contribution      =      70.03243750 Ry
     xc contribution           =     -49.68778531 Ry
     ewald contribution        =    -268.32400513 Ry

     convergence has been achieved in  10 iterations

     Forces acting on atoms (cartesian axes, Ry/au):

     atom    1 type  1   force =     0.00000000    0.00000000    0.00034204
     atom    2 type  2   force =     0.00000000    0.00000000   -0.00045661
     atom    3 type  3   force =     0.00000000    0.00000000    0.00036763
     atom    4 type  3   force =     0.00000000    0.00000000   -0.00012653
     atom    5 type  3   force =     0.00000000    0.00000000   -0.00012653

     Total force =     0.000702     Total SCF correction =     0.000002


     Computing stress (Cartesian axis) and pressure

          total   stress  (Ry/bohr**3)                   (kbar)     P=        0.17
   0.00000313   0.00000000   0.00000000            0.46        0.00        0.00
   0.00000000   0.00000313   0.00000000            0.00        0.46        0.00
   0.00000000   0.00000000  -0.00000285            0.00        0.00       -0.42

     Energy error            =      5.3E-06 Ry
     Gradient error          =      4.6E-04 Ry/Bohr
     Cell gradient error     =      4.6E-01 kbar

     bfgs converged in   6 scf cycles and   5 bfgs steps
     (criteria: energy <  1.0E-04 Ry, force <  1.0E-03 Ry/Bohr, cell <  5.0E-01 kbar)

     End of BFGS Geometry Optimization

     Final enthalpy           =    -333.7640732145 Ry

     File ./tmp_pzt/pzt.bfgs deleted, as requested
Begin final coordinates
     new unit-cell volume =    405.74949 a.u.^3 (    60.12587 Ang^3 )
     density =      8.36993 g/cm^3

CELL_PARAMETERS (angstrom)
   3.855739967   0.000000000   0.000000000
   0.000000000   3.855739967   0.000000000
   0.000000000   0.000000000   4.044323654

ATOMIC_POSITIONS (crystal)
Pb               0.0000000000        0.0000000000        0.0003725338
Ti               0.5000000000        0.5000000000        0.5346316339
O                0.5000000000        0.5000000000        0.0938844043
O                0.5000000000        0.0000000000        0.6055557140
O                0.0000000000        0.5000000000        0.6055557140
End final coordinates



     Writing config-only to output data dir ./tmp_pzt/pzt.save/ :
     XML data file

     Final scf calculation at the relaxed structure.
     The G-vectors are recalculated for the final unit cell
     Results may differ from those at the preceding step.

     Parallelization info
     --------------------
     sticks:   dense  smooth     PW     G-vecs:    dense   smooth      PW
     Min         506     251     73                18026     6357    1043
     Max         507     252     74                18031     6360    1048
     Sum        2025    1005    293                72109    25433    4177

     Using Slab Decomposition



     bravais-lattice index     =            0
     lattice parameter (alat)  =       7.3699  a.u.
     unit-cell volume          =     405.7495 (a.u.)^3
     number of atoms/cell      =            5
     number of atomic types    =            3
     number of electrons       =        44.00
     number of Kohn-Sham states=           22
     kinetic-energy cutoff     =      60.0000  Ry
     charge density cutoff     =     480.0000  Ry
     scf convergence threshold =      1.0E-10
     mixing beta               =       0.3000
     number of iterations used =            8  plain     mixing
     press convergence thresh. =      5.0E-01
     Exchange-correlation= LDA
                           (   1   1   0   0   0   0   0)

     celldm(1)=   7.369932  celldm(2)=   0.000000  celldm(3)=   0.000000
     celldm(4)=   0.000000  celldm(5)=   0.000000  celldm(6)=   0.000000

     crystal axes: (cart. coord. in units of alat)
               a(1) = (   0.988651   0.000000   0.000000 )  
               a(2) = (   0.000000   0.988651   0.000000 )  
               a(3) = (   0.000000   0.000000   1.037006 )  

     reciprocal axes: (cart. coord. in units 2 pi/alat)
               b(1) = (  1.011479  0.000000  0.000000 )  
               b(2) = (  0.000000  1.011479  0.000000 )  
               b(3) = (  0.000000  0.000000  0.964315 )  


     PseudoPot. # 1 for Pb read from file:
     ./pseudos/Pb.pz-d-van.UPF
     MD5 check sum: 7d60cbfc971891b50292ee40cb29912a
     Pseudo is Ultrasoft, Zval = 14.0
     Generated by new atomic code, or converted to UPF format
     Using radial grid of  899 points,  6 beta functions with: 
                l(1) =   0
                l(2) =   0
                l(3) =   1
                l(4) =   1
                l(5) =   2
                l(6) =   2
     Q(r) pseudized with  8 coefficients,  rinner =    1.000   1.000   1.000
                                                       1.000   1.000

     PseudoPot. # 2 for Ti read from file:
     ./pseudos/Ti.pz-sp-van_ak.UPF
     MD5 check sum: 93c5ef60b250b0ab110b997ad8a4342c
     Pseudo is Ultrasoft, Zval = 12.0
     Generated by new atomic code, or converted to UPF format
     Using radial grid of  851 points,  6 beta functions with: 
                l(1) =   0
                l(2) =   0
                l(3) =   1
                l(4) =   1
                l(5) =   2
                l(6) =   2
     Q(r) pseudized with  8 coefficients,  rinner =    1.000   1.000   1.000
                                                       1.000   1.000

     PseudoPot. # 3 for O  read from file:
     ./pseudos/O.pz-van_ak.UPF
     MD5 check sum: b77f3d8cfe972ebbeca95ec6abb46c7c
     Pseudo is Ultrasoft, Zval =  6.0
     Generated by new atomic code, or converted to UPF format
     Using radial grid of  737 points,  4 beta functions with: 
                l(1) =   0
                l(2) =   0
                l(3) =   1
                l(4) =   1
     Q(r) pseudized with  8 coefficients,  rinner =    0.800   0.800   0.800


     atomic species   valence    mass     pseudopotential
     Pb               14.00   207.20000     Pb( 1.00)
     Ti               12.00    47.86700     Ti( 1.00)
     O                 6.00    15.99900     O ( 1.00)

      8 Sym. Ops. (no inversion) found



   Cartesian axes

     site n.     atom                  positions (alat units)
         1        Pb     tau(   1) = (   0.0000000   0.0000000   0.0003863  )
         2        Ti     tau(   2) = (   0.4943256   0.4943256   0.5544162  )
         3        O      tau(   3) = (   0.4943256   0.4943256   0.0973587  )
         4        O      tau(   4) = (   0.4943256   0.0000000   0.6279649  )
         5        O      tau(   5) = (   0.0000000   0.4943256   0.6279649  )

     number of k points=    40
                       cart. coord. in units 2pi/alat
        k(    1) = (   0.0000000   0.0000000   0.0000000), wk =   0.0092593
        k(    2) = (   0.0000000   0.0000000   0.1607191), wk =   0.0185185
        k(    3) = (   0.0000000   0.0000000   0.3214382), wk =   0.0185185
        k(    4) = (   0.0000000   0.0000000  -0.4821573), wk =   0.0092593
        k(    5) = (   0.0000000   0.1685798   0.0000000), wk =   0.0370370
        k(    6) = (   0.0000000   0.1685798   0.1607191), wk =   0.0740741
        k(    7) = (   0.0000000   0.1685798   0.3214382), wk =   0.0740741
        k(    8) = (   0.0000000   0.1685798  -0.4821573), wk =   0.0370370
        k(    9) = (   0.0000000   0.3371597   0.0000000), wk =   0.0370370
        k(   10) = (   0.0000000   0.3371597   0.1607191), wk =   0.0740741
        k(   11) = (   0.0000000   0.3371597   0.3214382), wk =   0.0740741
        k(   12) = (   0.0000000   0.3371597  -0.4821573), wk =   0.0370370
        k(   13) = (   0.0000000  -0.5057395   0.0000000), wk =   0.0185185
        k(   14) = (   0.0000000  -0.5057395   0.1607191), wk =   0.0370370
        k(   15) = (   0.0000000  -0.5057395   0.3214382), wk =   0.0370370
        k(   16) = (   0.0000000  -0.5057395  -0.4821573), wk =   0.0185185
        k(   17) = (   0.1685798   0.1685798   0.0000000), wk =   0.0370370
        k(   18) = (   0.1685798   0.1685798   0.1607191), wk =   0.0740741
        k(   19) = (   0.1685798   0.1685798   0.3214382), wk =   0.0740741
        k(   20) = (   0.1685798   0.1685798  -0.4821573), wk =   0.0370370
        k(   21) = (   0.1685798   0.3371597   0.0000000), wk =   0.0740741
        k(   22) = (   0.1685798   0.3371597   0.1607191), wk =   0.1481481
        k(   23) = (   0.1685798   0.3371597   0.3214382), wk =   0.1481481
        k(   24) = (   0.1685798   0.3371597  -0.4821573), wk =   0.0740741
        k(   25) = (   0.1685798  -0.5057395   0.0000000), wk =   0.0370370
        k(   26) = (   0.1685798  -0.5057395   0.1607191), wk =   0.0740741
        k(   27) = (   0.1685798  -0.5057395   0.3214382), wk =   0.0740741
        k(   28) = (   0.1685798  -0.5057395  -0.4821573), wk =   0.0370370
        k(   29) = (   0.3371597   0.3371597   0.0000000), wk =   0.0370370
        k(   30) = (   0.3371597   0.3371597   0.1607191), wk =   0.0740741
        k(   31) = (   0.3371597   0.3371597   0.3214382), wk =   0.0740741
        k(   32) = (   0.3371597   0.3371597  -0.4821573), wk =   0.0370370
        k(   33) = (   0.3371597  -0.5057395   0.0000000), wk =   0.0370370
        k(   34) = (   0.3371597  -0.5057395   0.1607191), wk =   0.0740741
        k(   35) = (   0.3371597  -0.5057395   0.3214382), wk =   0.0740741
        k(   36) = (   0.3371597  -0.5057395  -0.4821573), wk =   0.0370370
        k(   37) = (  -0.5057395  -0.5057395   0.0000000), wk =   0.0092593
        k(   38) = (  -0.5057395  -0.5057395   0.1607191), wk =   0.0185185
        k(   39) = (  -0.5057395  -0.5057395   0.3214382), wk =   0.0185185
        k(   40) = (  -0.5057395  -0.5057395  -0.4821573), wk =   0.0092593

     Dense  grid:    72109 G-vectors     FFT dimensions: (  54,  54,  54)

     Smooth grid:    25433 G-vectors     FFT dimensions: (  36,  36,  40)

     Estimated max dynamical RAM per process >      89.27 MB

     Estimated total dynamical RAM >     357.09 MB

     Initial potential from superposition of free atoms

     starting charge      42.9982, renormalised to      44.0000
     Starting wfcs are   31 randomized atomic wfcs

     total cpu time spent up to now is      139.9 secs

     Self-consistent Calculation

     iteration #  1     ecut=    60.00 Ry     beta= 0.30
     Davidson diagonalization with overlap
     ethr =  1.00E-06,  avg # of iterations = 10.9

     total cpu time spent up to now is      143.5 secs

     total energy              =    -333.67377191 Ry
     estimated scf accuracy    <       0.91427492 Ry

     iteration #  2     ecut=    60.00 Ry     beta= 0.30
     Davidson diagonalization with overlap
     ethr =  2.08E-03,  avg # of iterations =  2.0

     total cpu time spent up to now is      144.8 secs

     total energy              =    -333.72098879 Ry
     estimated scf accuracy    <       0.12292324 Ry

     iteration #  3     ecut=    60.00 Ry     beta= 0.30
     Davidson diagonalization with overlap
     ethr =  2.79E-04,  avg # of iterations =  5.5

     total cpu time spent up to now is      146.6 secs

     total energy              =    -333.80858821 Ry
     estimated scf accuracy    <       0.19455995 Ry

     iteration #  4     ecut=    60.00 Ry     beta= 0.30
     Davidson diagonalization with overlap
     ethr =  2.79E-04,  avg # of iterations =  1.0

     total cpu time spent up to now is      147.6 secs

     total energy              =    -333.70235724 Ry
     estimated scf accuracy    <       0.22113836 Ry

     iteration #  5     ecut=    60.00 Ry     beta= 0.30
     Davidson diagonalization with overlap
     ethr =  2.79E-04,  avg # of iterations =  4.8

     total cpu time spent up to now is      149.3 secs

     total energy              =    -333.78381208 Ry
     estimated scf accuracy    <       0.05540612 Ry

     iteration #  6     ecut=    60.00 Ry     beta= 0.30
     Davidson diagonalization with overlap
     ethr =  1.26E-04,  avg # of iterations =  1.2

     total cpu time spent up to now is      150.3 secs

     total energy              =    -333.76005205 Ry
     estimated scf accuracy    <       0.07684745 Ry

     iteration #  7     ecut=    60.00 Ry     beta= 0.30
     Davidson diagonalization with overlap
     ethr =  1.26E-04,  avg # of iterations =  2.3

     total cpu time spent up to now is      151.5 secs

     total energy              =    -333.75951445 Ry
     estimated scf accuracy    <       0.02493829 Ry

     iteration #  8     ecut=    60.00 Ry     beta= 0.30
     Davidson diagonalization with overlap
     ethr =  5.67E-05,  avg # of iterations =  3.8

     total cpu time spent up to now is      152.8 secs

     total energy              =    -333.76348095 Ry
     estimated scf accuracy    <       0.00282028 Ry

     iteration #  9     ecut=    60.00 Ry     beta= 0.30
     Davidson diagonalization with overlap
     ethr =  6.41E-06,  avg # of iterations =  4.2

     total cpu time spent up to now is      154.2 secs

     total energy              =    -333.76404581 Ry
     estimated scf accuracy    <       0.00088132 Ry

     iteration # 10     ecut=    60.00 Ry     beta= 0.30
     Davidson diagonalization with overlap
     ethr =  2.00E-06,  avg # of iterations =  2.5

     total cpu time spent up to now is      155.3 secs

     total energy              =    -333.76393631 Ry
     estimated scf accuracy    <       0.00066354 Ry

     iteration # 11     ecut=    60.00 Ry     beta= 0.30
     Davidson diagonalization with overlap
     ethr =  1.51E-06,  avg # of iterations =  2.5

     total cpu time spent up to now is      156.5 secs

     total energy              =    -333.76397926 Ry
     estimated scf accuracy    <       0.00022749 Ry

     iteration # 12     ecut=    60.00 Ry     beta= 0.30
     Davidson diagonalization with overlap
     ethr =  5.17E-07,  avg # of iterations =  3.3

     total cpu time spent up to now is      157.7 secs

     total energy              =    -333.76398639 Ry
     estimated scf accuracy    <       0.00014881 Ry

     iteration # 13     ecut=    60.00 Ry     beta= 0.30
     Davidson diagonalization with overlap
     ethr =  3.38E-07,  avg # of iterations =  2.5

     total cpu time spent up to now is      158.9 secs

     total energy              =    -333.76399023 Ry
     estimated scf accuracy    <       0.00007844 Ry

     iteration # 14     ecut=    60.00 Ry     beta= 0.30
     Davidson diagonalization with overlap
     ethr =  1.78E-07,  avg # of iterations =  2.6

     total cpu time spent up to now is      160.0 secs

     total energy              =    -333.76397743 Ry
     estimated scf accuracy    <       0.00004697 Ry

     iteration # 15     ecut=    60.00 Ry     beta= 0.30
     Davidson diagonalization with overlap
     ethr =  1.07E-07,  avg # of iterations =  4.8

     total cpu time spent up to now is      161.6 secs

     total energy              =    -333.76399649 Ry
     estimated scf accuracy    <       0.00000923 Ry

     iteration # 16     ecut=    60.00 Ry     beta= 0.30
     Davidson diagonalization with overlap
     ethr =  2.10E-08,  avg # of iterations =  4.8

     total cpu time spent up to now is      163.1 secs

     total energy              =    -333.76399718 Ry
     estimated scf accuracy    <       0.00002344 Ry

     iteration # 17     ecut=    60.00 Ry     beta= 0.30
     Davidson diagonalization with overlap
     ethr =  2.10E-08,  avg # of iterations =  2.5

     total cpu time spent up to now is      164.3 secs

     total energy              =    -333.76399532 Ry
     estimated scf accuracy    <       0.00001990 Ry

     iteration # 18     ecut=    60.00 Ry     beta= 0.30
     Davidson diagonalization with overlap
     ethr =  2.10E-08,  avg # of iterations =  1.9

     total cpu time spent up to now is      165.4 secs

     total energy              =    -333.76399562 Ry
     estimated scf accuracy    <       0.00001307 Ry

     iteration # 19     ecut=    60.00 Ry     beta= 0.30
     Davidson diagonalization with overlap
     ethr =  2.10E-08,  avg # of iterations =  1.0

     total cpu time spent up to now is      166.5 secs

     total energy              =    -333.76399485 Ry
     estimated scf accuracy    <       0.00001218 Ry

     iteration # 20     ecut=    60.00 Ry     beta= 0.30
     Davidson diagonalization with overlap
     ethr =  2.10E-08,  avg # of iterations =  1.8

     total cpu time spent up to now is      167.6 secs

     total energy              =    -333.76399342 Ry
     estimated scf accuracy    <       0.00000845 Ry

     iteration # 21     ecut=    60.00 Ry     beta= 0.30
     Davidson diagonalization with overlap
     ethr =  1.92E-08,  avg # of iterations =  2.6

     total cpu time spent up to now is      168.8 secs

     total energy              =    -333.76399382 Ry
     estimated scf accuracy    <       0.00000168 Ry

     iteration # 22     ecut=    60.00 Ry     beta= 0.30
     Davidson diagonalization with overlap
     ethr =  3.81E-09,  avg # of iterations =  4.8

     total cpu time spent up to now is      170.3 secs

     total energy              =    -333.76399441 Ry
     estimated scf accuracy    <       0.00000015 Ry

     iteration # 23     ecut=    60.00 Ry     beta= 0.30
     Davidson diagonalization with overlap
     ethr =  3.39E-10,  avg # of iterations =  3.3

     total cpu time spent up to now is      171.6 secs

     total energy              =    -333.76399442 Ry
     estimated scf accuracy    <       0.00000004 Ry

     iteration # 24     ecut=    60.00 Ry     beta= 0.30
     Davidson diagonalization with overlap
     ethr =  8.74E-11,  avg # of iterations =  5.0

     total cpu time spent up to now is      173.3 secs

     total energy              =    -333.76399442 Ry
     estimated scf accuracy    <       0.00000005 Ry

     iteration # 25     ecut=    60.00 Ry     beta= 0.30
     Davidson diagonalization with overlap
     ethr =  8.74E-11,  avg # of iterations =  4.4

     total cpu time spent up to now is      174.8 secs

     total energy              =    -333.76399443 Ry
     estimated scf accuracy    <          5.4E-09 Ry

     iteration # 26     ecut=    60.00 Ry     beta= 0.30
     Davidson diagonalization with overlap
     ethr =  1.24E-11,  avg # of iterations =  4.6

     total cpu time spent up to now is      176.3 secs

     total energy              =    -333.76399443 Ry
     estimated scf accuracy    <          7.0E-09 Ry

     iteration # 27     ecut=    60.00 Ry     beta= 0.30
     Davidson diagonalization with overlap
     ethr =  1.24E-11,  avg # of iterations =  1.8

     total cpu time spent up to now is      177.4 secs

     total energy              =    -333.76399443 Ry
     estimated scf accuracy    <          3.3E-09 Ry

     iteration # 28     ecut=    60.00 Ry     beta= 0.30
     Davidson diagonalization with overlap
     ethr =  7.45E-12,  avg # of iterations =  4.8

     total cpu time spent up to now is      178.9 secs

     total energy              =    -333.76399443 Ry
     estimated scf accuracy    <          7.7E-10 Ry

     iteration # 29     ecut=    60.00 Ry     beta= 0.30
     Davidson diagonalization with overlap
     ethr =  1.76E-12,  avg # of iterations =  4.5

     total cpu time spent up to now is      180.3 secs

     total energy              =    -333.76399443 Ry
     estimated scf accuracy    <          3.9E-10 Ry

     iteration # 30     ecut=    60.00 Ry     beta= 0.30
     Davidson diagonalization with overlap
     ethr =  8.97E-13,  avg # of iterations =  4.3

     total cpu time spent up to now is      181.6 secs

     End of self-consistent calculation

          k = 0.0000 0.0000 0.0000 (  3139 PWs)   bands (ev):

   -45.1515 -21.8369 -21.7508 -21.7508  -7.1779  -6.0226  -5.7750  -4.3936
    -4.3936  -4.3530  -4.2390  -4.1278   4.8571   6.7415   6.7415   7.1172
     8.7373   8.7373   8.9737   9.3136   9.4583   9.4583

          k = 0.0000 0.0000 0.1607 (  3151 PWs)   bands (ev):

   -45.1513 -21.8493 -21.7504 -21.7504  -7.0750  -5.9922  -5.7386  -4.4027
    -4.4027  -4.3522  -4.2323  -4.1659   4.3545   6.7737   6.7737   7.4350
     8.5881   8.5881   8.9310   9.1415   9.5277   9.5277

          k = 0.0000 0.0000 0.3214 (  3171 PWs)   bands (ev):

   -45.1508 -21.8741 -21.7495 -21.7495  -6.8574  -5.9274  -5.6695  -4.4207
    -4.4207  -4.3506  -4.2463  -4.2198   3.6951   6.8246   6.8246   6.9852
     8.3786   8.3786   8.8487   9.6190   9.6190   9.9235

          k = 0.0000 0.0000-0.4822 (  3202 PWs)   bands (ev):

   -45.1506 -21.8864 -21.7491 -21.7491  -6.7410  -5.8925  -5.6379  -4.4297
    -4.4297  -4.3499  -4.2888  -4.2141   3.4450   6.6065   6.8416   6.8416
     8.3040   8.3040   8.8089   9.6549   9.6549  10.6837

          k = 0.0000 0.1686 0.0000 (  3170 PWs)   bands (ev):

   -45.1510 -21.8361 -21.7719 -21.7500  -7.0330  -5.9880  -5.7444  -4.4177
    -4.3920  -4.3678  -4.2423  -4.1164   4.3652   6.8087   6.8522   7.1573
     8.6826   8.7557   8.9668   9.0824   9.1925   9.5817

          k = 0.0000 0.1686 0.1607 (  3173 PWs)   bands (ev):

   -45.1508 -21.8484 -21.7713 -21.7496  -6.9373  -5.9654  -5.7062  -4.4177
    -4.4014  -4.3674  -4.2373  -4.1370   4.0340   6.6762   6.8904   7.4145
     8.3833   8.5743   8.8662   9.1123   9.1877   9.7370

          k = 0.0000 0.1686 0.3214 (  3186 PWs)   bands (ev):

   -45.1503 -21.8730 -21.7703 -21.7487  -6.7408  -5.9168  -5.6272  -4.4201
    -4.4148  -4.3665  -4.2363  -4.1746   3.5147   6.4707   6.9500   7.2284
     8.0010   8.3638   8.7943   9.2216   9.2909  10.2395

          k = 0.0000 0.1686-0.4822 (  3154 PWs)   bands (ev):

   -45.1501 -21.8851 -21.7698 -21.7482  -6.6403  -5.8895  -5.5866  -4.4293
    -4.4134  -4.3660  -4.2388  -4.1919   3.3007   6.2698   6.9690   7.0439
     7.9337   8.2965   8.8494   9.2385   9.3279  10.5990

          k = 0.0000 0.3372 0.0000 (  3186 PWs)   bands (ev):

   -45.1501 -21.8345 -21.8134 -21.7484  -6.7185  -5.9132  -5.6990  -4.4542
    -4.3974  -4.3887  -4.2382  -4.1213   3.7353   6.4416   7.1069   7.1352
     8.3400   8.3652   8.8221   8.8815   9.3145  10.2303

          k = 0.0000 0.3372 0.1607 (  3190 PWs)   bands (ev):

   -45.1498 -21.8466 -21.8129 -21.7479  -6.6512  -5.8945  -5.6538  -4.4384
    -4.3993  -4.3969  -4.2253  -4.1154   3.5457   6.3850   7.0893   7.1919
     7.9742   8.2683   8.7474   8.9039   9.1862  10.3221

          k = 0.0000 0.3372 0.3214 (  3183 PWs)   bands (ev):

   -45.1494 -21.8707 -21.8117 -21.7470  -6.5391  -5.8403  -5.5407  -4.4187
    -4.4017  -4.3978  -4.2428  -4.0708   3.2033   6.1875   6.8794   7.2722
     7.6861   8.0409   8.1532   8.9331   9.6826  10.2419

          k = 0.0000 0.3372-0.4822 (  3164 PWs)   bands (ev):

   -45.1491 -21.8826 -21.8110 -21.7465  -6.4966  -5.8024  -5.4720  -4.4285
    -4.3979  -4.3804  -4.2634  -4.0429   3.0476   5.9853   6.7637   7.2879
     7.6550   7.8232   8.1368   8.9451   9.8774  10.1444

          k = 0.0000-0.5057 0.0000 (  3178 PWs)   bands (ev):

   -45.1496 -21.8345 -21.8331 -21.7476  -6.5447  -5.8567  -5.7042  -4.4698
    -4.4119  -4.3871  -4.2148  -4.1513   3.5157   6.0540   7.3721   7.3796
     7.8467   7.9822   8.7437   8.9184   9.3463  11.0365

          k = 0.0000-0.5057 0.1607 (  3184 PWs)   bands (ev):

   -45.1493 -21.8452 -21.8338 -21.7471  -6.5076  -5.8189  -5.6596  -4.4516
    -4.4124  -4.3975  -4.1718  -4.1525   3.3622   6.0471   7.2997   7.4242
     7.4829   7.8837   8.8594   8.9065   9.1272  10.7698

          k = 0.0000-0.5057 0.3214 (  3174 PWs)   bands (ev):

   -45.1489 -21.8693 -21.8323 -21.7461  -6.4683  -5.7395  -5.5160  -4.4180
    -4.4133  -4.4118  -4.2196  -4.0354   3.0783   5.9761   6.6982   7.2981
     7.6989   7.7019   8.1280   8.8899   9.7214  10.2682

          k = 0.0000-0.5057-0.4822 (  3168 PWs)   bands (ev):

   -45.1486 -21.8812 -21.8316 -21.7456  -6.4629  -5.6975  -5.4196  -4.4281
    -4.4138  -4.3877  -4.2496  -3.9803   2.9461   5.8467   6.4512   7.3428
     7.6122   7.8186   7.8334   8.8839   9.8053  10.1844

          k = 0.1686 0.1686 0.0000 (  3183 PWs)   bands (ev):

   -45.1506 -21.8353 -21.7711 -21.7708  -6.8906  -5.9522  -5.7352  -4.4231
    -4.4081  -4.3720  -4.2190  -4.1060   4.0322   6.7293   6.9829   7.2162
     8.2143   8.3197   9.0607   9.0925   9.3946   9.8178

          k = 0.1686 0.1686 0.1607 (  3183 PWs)   bands (ev):

   -45.1503 -21.8475 -21.7706 -21.7703  -6.7995  -5.9391  -5.6981  -4.4182
    -4.4138  -4.3695  -4.2120  -4.1133   3.8290   6.6205   6.6999   7.4295
     8.0969   8.2473   8.8958   9.1780   9.4370   9.7937

          k = 0.1686 0.1686 0.3214 (  3181 PWs)   bands (ev):

   -45.1498 -21.8719 -21.7695 -21.7693  -6.6173  -5.9126  -5.6157  -4.4341
    -4.3898  -4.3594  -4.2068  -4.1326   3.4449   6.4022   6.5317   7.1537
     7.9605   7.9916   8.8193   9.2877   9.5103  10.1083

          k = 0.1686 0.1686-0.4822 (  3190 PWs)   bands (ev):

   -45.1496 -21.8840 -21.7690 -21.7689  -6.5272  -5.8993  -5.5687  -4.4398
    -4.3803  -4.3436  -4.2118  -4.1447   3.2680   6.2963   6.3360   7.0341
     7.9465   7.9687   8.7561   9.3187   9.5365  10.2901

          k = 0.1686 0.3372 0.0000 (  3182 PWs)   bands (ev):

   -45.1496 -21.8337 -21.8123 -21.7691  -6.5847  -5.8790  -5.7312  -4.4469
    -4.3971  -4.3570  -4.1959  -4.1115   3.5176   6.4381   6.9868   7.2804
     7.6689   8.2573   8.5591   9.2379   9.4279  10.3126

          k = 0.1686 0.3372 0.1607 (  3189 PWs)   bands (ev):

   -45.1493 -21.8456 -21.8119 -21.7687  -6.5146  -5.8759  -5.6940  -4.4323
    -4.4007  -4.3460  -4.1801  -4.0942   3.4523   6.3656   6.5665   7.0962
     7.6520   8.2298   8.7366   9.1948   9.4161  10.1671

          k = 0.1686 0.3372 0.3214 (  3189 PWs)   bands (ev):

   -45.1489 -21.8697 -21.8107 -21.7677  -6.4011  -5.8593  -5.5918  -4.4206
    -4.3848  -4.3174  -4.1752  -4.0441   3.2822   6.1028   6.3229   6.8273
     7.0848   7.9927   9.0147   9.2043   9.6441   9.9010

          k = 0.1686 0.3372-0.4822 (  3192 PWs)   bands (ev):

   -45.1486 -21.8816 -21.8101 -21.7672  -6.3605  -5.8454  -5.5240  -4.4209
    -4.3704  -4.2923  -4.1861  -4.0161   3.1827   5.9040   6.3221   6.6387
     6.8861   7.9440   9.0163   9.2408   9.5207   9.9755

          k = 0.1686-0.5057 0.0000 (  3204 PWs)   bands (ev):

   -45.1491 -21.8334 -21.8323 -21.7683  -6.4173  -5.8251  -5.7559  -4.4497
    -4.3893  -4.3360  -4.1798  -4.1430   3.3176   6.0729   7.1045   7.3317
     7.6276   7.9704   8.4283   9.2708   9.4281  10.6474

          k = 0.1686-0.5057 0.1607 (  3174 PWs)   bands (ev):

   -45.1488 -21.8443 -21.8327 -21.7678  -6.3721  -5.8071  -5.7244  -4.4324
    -4.3907  -4.3233  -4.1450  -4.1232   3.2921   6.0608   6.5082   6.9975
     7.6329   8.3626   8.4016   9.2396   9.4003  10.2897

          k = 0.1686-0.5057 0.3214 (  3194 PWs)   bands (ev):

   -45.1484 -21.8683 -21.8313 -21.7668  -6.3285  -5.7720  -5.5977  -4.4162
    -4.3648  -4.3026  -4.1570  -4.0094   3.2040   5.9594   6.1774   6.4523
     7.0424   8.1167   8.8522   9.1875   9.4480   9.9705

          k = 0.1686-0.5057-0.4822 (  3180 PWs)   bands (ev):

   -45.1482 -21.8802 -21.8307 -21.7663  -6.3256  -5.7550  -5.5073  -4.4152
    -4.3374  -4.2912  -4.1692  -3.9545   3.1422   5.7980   6.1545   6.3022
     6.7327   8.0554   8.8856   9.1510   9.1796  10.1942

          k = 0.3372 0.3372 0.0000 (  3209 PWs)   bands (ev):

   -45.1486 -21.8320 -21.8103 -21.8101  -6.3214  -5.8102  -5.7769  -4.4266
    -4.3776  -4.2872  -4.1158  -4.1155   3.1096   6.4244   6.5166   7.3978
     7.5415   7.6919   8.3550   9.0801   9.9023  10.0471

          k = 0.3372 0.3372 0.1607 (  3197 PWs)   bands (ev):

   -45.1484 -21.8438 -21.8098 -21.8098  -6.2427  -5.8348  -5.7639  -4.4052
    -4.3738  -4.2565  -4.0929  -4.0748   3.2060   6.2905   6.2964   6.5311
     7.1935   7.9717   8.9772   9.0989   9.6660   9.9089

          k = 0.3372 0.3372 0.3214 (  3184 PWs)   bands (ev):

   -45.1479 -21.8675 -21.8088 -21.8088  -6.1316  -5.8814  -5.6818  -4.3663
    -4.3620  -4.1957  -4.0424  -3.9952   3.3917   5.7226   5.7882   6.3322
     6.9986   7.1363   8.6400   9.7116   9.7736   9.9430

          k = 0.3372 0.3372-0.4822 (  3170 PWs)   bands (ev):

   -45.1477 -21.8794 -21.8083 -21.8082  -6.1041  -5.9036  -5.6079  -4.3626
    -4.3409  -4.1616  -4.0173  -3.9561   3.4691   5.5586   5.5826   6.1634
     6.8065   6.9710   8.2178   9.8755   9.8892  10.0553

          k = 0.3372-0.5057 0.0000 (  3206 PWs)   bands (ev):

   -45.1481 -21.8311 -21.8306 -21.8092  -6.2036  -5.7882  -5.7665  -4.4180
    -4.3536  -4.2248  -4.1491  -4.0815   2.9223   6.0674   6.5632   7.2068
     7.7363   7.8532   7.9736   9.0478   9.7312  10.1100

          k = 0.3372-0.5057 0.1607 (  3198 PWs)   bands (ev):

   -45.1479 -21.8425 -21.8305 -21.8088  -6.1188  -5.8048  -5.7901  -4.3957
    -4.3473  -4.1735  -4.1076  -4.0492   3.0669   6.0541   6.3041   6.3593
     7.0024   8.1082   8.7323   9.1753   9.2908  10.0821

          k = 0.3372-0.5057 0.3214 (  3182 PWs)   bands (ev):

   -45.1474 -21.8663 -21.8294 -21.8078  -6.0382  -5.8349  -5.7341  -4.3555
    -4.3323  -4.1019  -4.0232  -3.9545   3.4079   5.5316   5.7529   6.0053
     6.7359   7.2182   7.9929   9.7888   9.8645  10.0854

          k = 0.3372-0.5057-0.4822 (  3168 PWs)   bands (ev):

   -45.1472 -21.8782 -21.8288 -21.8073  -6.0449  -5.8562  -5.6454  -4.3442
    -4.3166  -4.0723  -3.9806  -3.8995   3.6116   5.2910   5.4848   5.9225
     6.5666   6.9807   7.4321   9.9771  10.0498  10.2173

          k =-0.5057-0.5057 0.0000 (  3224 PWs)   bands (ev):

   -45.1476 -21.8300 -21.8300 -21.8291  -6.1497  -5.7399  -5.7399  -4.4069
    -4.3044  -4.1735  -4.1735  -4.0295   2.7288   5.9169   6.3913   7.4174
     7.4174   7.9716   7.9716   8.8121   9.2610  10.3701

          k =-0.5057-0.5057 0.1607 (  3200 PWs)   bands (ev):

   -45.1474 -21.8412 -21.8294 -21.8294  -6.0409  -5.7847  -5.7847  -4.3842
    -4.3033  -4.0983  -4.0983  -4.0137   2.9211   5.8998   6.3947   6.4525
     6.4525   8.1350   8.5330   9.0035   9.0035  10.3610

          k =-0.5057-0.5057 0.3214 (  3180 PWs)   bands (ev):

   -45.1469 -21.8651 -21.8284 -21.8284  -5.8651  -5.8651  -5.8178  -4.3389
    -4.3011  -3.9748  -3.9551  -3.9551   3.4357   5.6161   5.6161   5.8341
     6.4015   7.0768   7.1739   9.9206   9.9206  10.3430

          k =-0.5057-0.5057-0.4822 (  3176 PWs)   bands (ev):

   -45.1467 -21.8770 -21.8278 -21.8278  -5.9017  -5.9017  -5.7037  -4.3163
    -4.3000  -3.9504  -3.8861  -3.8861   3.8351   5.3129   5.3129   5.7578
     6.4049   6.4207   6.6638  10.2285  10.2285  10.3340

     highest occupied level (ev):    11.0365

!    total energy              =    -333.76399443 Ry
     estimated scf accuracy    <          7.5E-11 Ry

     The total energy is the sum of the following terms:
     one-electron contribution =     -85.78459402 Ry
     hartree contribution      =      70.03241270 Ry
     xc contribution           =     -49.68780797 Ry
     ewald contribution        =    -268.32400513 Ry

     convergence has been achieved in  30 iterations

     Forces acting on atoms (cartesian axes, Ry/au):

     atom    1 type  1   force =     0.00000000    0.00000000    0.00034181
     atom    2 type  2   force =     0.00000000    0.00000000   -0.00045199
     atom    3 type  3   force =     0.00000000    0.00000000    0.00036984
     atom    4 type  3   force =     0.00000000    0.00000000   -0.00012983
     atom    5 type  3   force =     0.00000000    0.00000000   -0.00012983

     Total force =     0.000701     Total SCF correction =     0.000011


     Computing stress (Cartesian axis) and pressure

          total   stress  (Ry/bohr**3)                   (kbar)     P=       -0.01
   0.00000185   0.00000000   0.00000000            0.27        0.00        0.00
   0.00000000   0.00000185   0.00000000            0.00        0.27        0.00
   0.00000000   0.00000000  -0.00000398            0.00        0.00       -0.59


     Writing all to output data dir ./tmp_pzt/pzt.save/ :
     XML data file, charge density, pseudopotentials, collected wavefunctions

     init_run     :      2.39s CPU      2.64s WALL (       2 calls)
     electrons    :    151.16s CPU    168.79s WALL (       7 calls)
     update_pot   :      0.05s CPU      0.05s WALL (       5 calls)
     forces       :      1.38s CPU      1.47s WALL (       7 calls)
     stress       :      9.13s CPU      9.43s WALL (       7 calls)

     Called by init_run:
     wfcinit      :      1.01s CPU      1.10s WALL (       2 calls)
     potinit      :      0.38s CPU      0.39s WALL (       2 calls)
     hinit0       :      0.53s CPU      0.56s WALL (       2 calls)

     Called by electrons:
     c_bands      :    116.47s CPU    128.67s WALL (     110 calls)
     sum_band     :     25.70s CPU     29.48s WALL (     110 calls)
     v_of_rho     :      0.27s CPU      0.30s WALL (     115 calls)
     newd         :      8.98s CPU     10.71s WALL (     115 calls)
     mix_rho      :      0.20s CPU      0.21s WALL (     110 calls)

     Called by c_bands:
     init_us_2    :      2.77s CPU      3.03s WALL (    9440 calls)
     cegterg      :    110.05s CPU    121.90s WALL (    4400 calls)

     Called by *egterg:
     cdiaghg      :      8.95s CPU      9.71s WALL (   21939 calls)
     h_psi        :     84.36s CPU     93.92s WALL (   22299 calls)
     s_psi        :      3.08s CPU      3.45s WALL (   22299 calls)
     g_psi        :      0.57s CPU      0.62s WALL (   17819 calls)

     Called by h_psi:
     h_psi:calbec :      4.90s CPU      5.55s WALL (   22299 calls)
     vloc_psi     :     75.78s CPU     84.25s WALL (   22299 calls)
     add_vuspsi   :      3.22s CPU      3.64s WALL (   22299 calls)

     General routines
     calbec       :      7.69s CPU      8.58s WALL (   31459 calls)
     fft          :      0.64s CPU      0.68s WALL (     718 calls)
     ffts         :      0.36s CPU      0.37s WALL (     225 calls)
     fftw         :     77.02s CPU     85.89s WALL (  673284 calls)
     interpolate  :      0.42s CPU      0.42s WALL (     115 calls)

     Parallel routines

     PWSCF        :   2m44.82s CPU   3m 3.34s WALL


   This run was terminated on:  21:43:35  12Nov2025            

=------------------------------------------------------------------------------=
   JOB DONE.
=------------------------------------------------------------------------------=
