
     Program PWSCF v.7.4.1 starts on 13Nov2025 at 19:34:26 

     This program is part of the open-source Quantum ESPRESSO suite
     for quantum simulation of materials; please cite
         "P. Giannozzi et al., J. Phys.:Condens. Matter 21 395502 (2009);
         "P. Giannozzi et al., J. Phys.:Condens. Matter 29 465901 (2017);
         "P. Giannozzi et al., J. Chem. Phys. 152 154105 (2020);
          URL http://www.quantum-espresso.org", 
     in publications or presentations arising from this work. More details at
     http://www.quantum-espresso.org/quote

     Parallel version (MPI), running on     1 processors

     MPI processes distributed on     1 nodes
     4797 MiB available memory on the printing compute node when the environment starts

     Reading input from pzt/scf/pzt_scf_nk10.in

     Current dimensions of program PWSCF are:
     Max number of different atomic species (ntypx) = 10
     Max number of k-points (npk) =  40000
     Max angular momentum in pseudopotentials (lmaxx) =  4

     IMPORTANT: XC functional enforced from input :
     Exchange-correlation= LDA
                           (   1   1   0   0   0   0   0)
     Any further DFT definition will be discarded
     Please, verify this is what you really want

     Message from routine setup:
     using ibrav=0 with symmetry is DISCOURAGED, use correct ibrav instead

     Subspace diagonalization in iterative solution of the eigenvalue problem:
     a serial algorithm will be used


     G-vector sticks info
     --------------------
     sticks:   dense  smooth     PW     G-vecs:    dense   smooth      PW
     Sum        2025    1005    293                72333    25625    4177

     Using Slab Decomposition



     bravais-lattice index     =            0
     lattice parameter (alat)  =       7.2956  a.u.
     unit-cell volume          =     407.8422 (a.u.)^3
     number of atoms/cell      =            5
     number of atomic types    =            3
     number of electrons       =        44.00
     number of Kohn-Sham states=           22
     kinetic-energy cutoff     =      60.0000  Ry
     charge density cutoff     =     480.0000  Ry
     scf convergence threshold =      1.0E-08
     mixing beta               =       0.3000
     number of iterations used =            8  plain     mixing
     Exchange-correlation= LDA
                           (   1   1   0   0   0   0   0)

     celldm(1)=   7.295621  celldm(2)=   0.000000  celldm(3)=   0.000000
     celldm(4)=   0.000000  celldm(5)=   0.000000  celldm(6)=   0.000000

     crystal axes: (cart. coord. in units of alat)
               a(1) = (   1.000000   0.000000   0.000000 )  
               a(2) = (   0.000000   1.000000   0.000000 )  
               a(3) = (   0.000000   0.000000   1.050281 )  

     reciprocal axes: (cart. coord. in units 2 pi/alat)
               b(1) = (  1.000000  0.000000  0.000000 )  
               b(2) = (  0.000000  1.000000  0.000000 )  
               b(3) = (  0.000000  0.000000  0.952127 )  


     PseudoPot. # 1 for Pb read from file:
     ./pseudos/Pb.pz-d-van.UPF
     MD5 check sum: 7d60cbfc971891b50292ee40cb29912a
     Pseudo is Ultrasoft, Zval = 14.0
     Generated by new atomic code, or converted to UPF format
     Using radial grid of  899 points,  6 beta functions with: 
                l(1) =   0
                l(2) =   0
                l(3) =   1
                l(4) =   1
                l(5) =   2
                l(6) =   2
     Q(r) pseudized with  8 coefficients,  rinner =    1.000   1.000   1.000
                                                       1.000   1.000

     PseudoPot. # 2 for Ti read from file:
     ./pseudos/Ti.pz-sp-van_ak.UPF
     MD5 check sum: 93c5ef60b250b0ab110b997ad8a4342c
     Pseudo is Ultrasoft, Zval = 12.0
     Generated by new atomic code, or converted to UPF format
     Using radial grid of  851 points,  6 beta functions with: 
                l(1) =   0
                l(2) =   0
                l(3) =   1
                l(4) =   1
                l(5) =   2
                l(6) =   2
     Q(r) pseudized with  8 coefficients,  rinner =    1.000   1.000   1.000
                                                       1.000   1.000

     PseudoPot. # 3 for O  read from file:
     ./pseudos/O.pz-van_ak.UPF
     MD5 check sum: b77f3d8cfe972ebbeca95ec6abb46c7c
     Pseudo is Ultrasoft, Zval =  6.0
     Generated by new atomic code, or converted to UPF format
     Using radial grid of  737 points,  4 beta functions with: 
                l(1) =   0
                l(2) =   0
                l(3) =   1
                l(4) =   1
     Q(r) pseudized with  8 coefficients,  rinner =    0.800   0.800   0.800


     atomic species   valence    mass     pseudopotential
     Pb               14.00   207.20000     Pb( 1.00)
     Ti               12.00    47.86700     Ti( 1.00)
     O                 6.00    15.99900     O ( 1.00)

      8 Sym. Ops. (no inversion) found



   Cartesian axes

     site n.     atom                  positions (alat units)
         1        Pb     tau(   1) = (   0.0000000   0.0000000  -0.0005884  )
         2        Ti     tau(   2) = (   0.5000000   0.5000000   0.5645672  )
         3        O      tau(   3) = (   0.5000000   0.5000000   0.1057338  )
         4        O      tau(   4) = (   0.5000000   0.0000000   0.6314019  )
         5        O      tau(   5) = (   0.0000000   0.5000000   0.6314019  )

     number of k points=   126

     Number of k-points >= 100: set verbosity='high' to print them.

     Dense  grid:    72333 G-vectors     FFT dimensions: (  54,  54,  54)

     Smooth grid:    25625 G-vectors     FFT dimensions: (  36,  36,  40)

     Estimated max dynamical RAM per process >     398.22 MB

     Initial potential from superposition of free atoms

     starting charge      42.9982, renormalised to      44.0000
     Starting wfcs are   31 randomized atomic wfcs

     total cpu time spent up to now is        5.7 secs

     Self-consistent Calculation

     iteration #  1     ecut=    60.00 Ry     beta= 0.30
     Davidson diagonalization with overlap
     ethr =  1.00E-02,  avg # of iterations =  2.0

     total cpu time spent up to now is       13.3 secs

     total energy              =    -333.59667929 Ry
     estimated scf accuracy    <       1.00735347 Ry

     iteration #  2     ecut=    60.00 Ry     beta= 0.30
     Davidson diagonalization with overlap
     ethr =  2.29E-03,  avg # of iterations =  3.1

     total cpu time spent up to now is       22.0 secs

     total energy              =    -333.73907505 Ry
     estimated scf accuracy    <       0.10528986 Ry

     iteration #  3     ecut=    60.00 Ry     beta= 0.30
     Davidson diagonalization with overlap
     ethr =  2.39E-04,  avg # of iterations =  4.7

     total cpu time spent up to now is       33.0 secs

     total energy              =    -333.75387141 Ry
     estimated scf accuracy    <       0.11765186 Ry

     iteration #  4     ecut=    60.00 Ry     beta= 0.30
     Davidson diagonalization with overlap
     ethr =  2.39E-04,  avg # of iterations =  2.8

     total cpu time spent up to now is       41.2 secs

     total energy              =    -333.73974547 Ry
     estimated scf accuracy    <       0.03170474 Ry

     iteration #  5     ecut=    60.00 Ry     beta= 0.30
     Davidson diagonalization with overlap
     ethr =  7.21E-05,  avg # of iterations =  6.2

     total cpu time spent up to now is       54.9 secs

     total energy              =    -333.78310386 Ry
     estimated scf accuracy    <       0.23544003 Ry

     iteration #  6     ecut=    60.00 Ry     beta= 0.30
     Davidson diagonalization with overlap
     ethr =  7.21E-05,  avg # of iterations =  2.5

     total cpu time spent up to now is       62.9 secs

     total energy              =    -333.73213069 Ry
     estimated scf accuracy    <       0.15340316 Ry

     iteration #  7     ecut=    60.00 Ry     beta= 0.30
     Davidson diagonalization with overlap
     ethr =  7.21E-05,  avg # of iterations =  6.0

     total cpu time spent up to now is       75.6 secs

     total energy              =    -333.76547131 Ry
     estimated scf accuracy    <       0.00293607 Ry

     iteration #  8     ecut=    60.00 Ry     beta= 0.30
     Davidson diagonalization with overlap
     ethr =  6.67E-06,  avg # of iterations =  6.0

     total cpu time spent up to now is       88.7 secs

     total energy              =    -333.76464365 Ry
     estimated scf accuracy    <       0.03084689 Ry

     iteration #  9     ecut=    60.00 Ry     beta= 0.30
     Davidson diagonalization with overlap
     ethr =  6.67E-06,  avg # of iterations =  4.6

     total cpu time spent up to now is       98.2 secs

     total energy              =    -333.76014693 Ry
     estimated scf accuracy    <       0.01303575 Ry

     iteration # 10     ecut=    60.00 Ry     beta= 0.30
     Davidson diagonalization with overlap
     ethr =  6.67E-06,  avg # of iterations =  6.2

     total cpu time spent up to now is      111.2 secs

     total energy              =    -333.76328048 Ry
     estimated scf accuracy    <       0.00095248 Ry

     iteration # 11     ecut=    60.00 Ry     beta= 0.30
     Davidson diagonalization with overlap
     ethr =  2.16E-06,  avg # of iterations =  1.7

     total cpu time spent up to now is      118.5 secs

     total energy              =    -333.76320837 Ry
     estimated scf accuracy    <       0.00040965 Ry

     iteration # 12     ecut=    60.00 Ry     beta= 0.30
     Davidson diagonalization with overlap
     ethr =  9.31E-07,  avg # of iterations =  4.2

     total cpu time spent up to now is      127.6 secs

     total energy              =    -333.76331347 Ry
     estimated scf accuracy    <       0.00000188 Ry

     iteration # 13     ecut=    60.00 Ry     beta= 0.30
     Davidson diagonalization with overlap
     ethr =  4.27E-09,  avg # of iterations =  7.2

     total cpu time spent up to now is      141.6 secs

     total energy              =    -333.76331955 Ry
     estimated scf accuracy    <       0.00000048 Ry

     iteration # 14     ecut=    60.00 Ry     beta= 0.30
     Davidson diagonalization with overlap
     ethr =  1.10E-09,  avg # of iterations =  7.3

     total cpu time spent up to now is      157.6 secs

     total energy              =    -333.76331498 Ry
     estimated scf accuracy    <       0.00001821 Ry

     iteration # 15     ecut=    60.00 Ry     beta= 0.30
     Davidson diagonalization with overlap
     ethr =  1.10E-09,  avg # of iterations =  7.6

     total cpu time spent up to now is      173.8 secs

     total energy              =    -333.76331835 Ry
     estimated scf accuracy    <       0.00000048 Ry

     iteration # 16     ecut=    60.00 Ry     beta= 0.30
     Davidson diagonalization with overlap
     ethr =  1.08E-09,  avg # of iterations =  5.0

     total cpu time spent up to now is      185.0 secs

     total energy              =    -333.76331854 Ry
     estimated scf accuracy    <       0.00000031 Ry

     iteration # 17     ecut=    60.00 Ry     beta= 0.30
     Davidson diagonalization with overlap
     ethr =  7.00E-10,  avg # of iterations =  1.1

     total cpu time spent up to now is      191.9 secs

     total energy              =    -333.76331838 Ry
     estimated scf accuracy    <       0.00000018 Ry

     iteration # 18     ecut=    60.00 Ry     beta= 0.30
     Davidson diagonalization with overlap
     ethr =  4.12E-10,  avg # of iterations =  1.9

     total cpu time spent up to now is      199.3 secs

     total energy              =    -333.76331836 Ry
     estimated scf accuracy    <       0.00000013 Ry

     iteration # 19     ecut=    60.00 Ry     beta= 0.30
     Davidson diagonalization with overlap
     ethr =  2.86E-10,  avg # of iterations =  2.5

     total cpu time spent up to now is      207.3 secs

     total energy              =    -333.76331836 Ry
     estimated scf accuracy    <       0.00000004 Ry

     iteration # 20     ecut=    60.00 Ry     beta= 0.30
     Davidson diagonalization with overlap
     ethr =  8.65E-11,  avg # of iterations =  4.6

     total cpu time spent up to now is      217.2 secs

     End of self-consistent calculation

     Number of k-points >= 100: set verbosity='high' to print the bands.

     highest occupied level (ev):    10.9240

!    total energy              =    -333.76331837 Ry
     estimated scf accuracy    <          9.4E-10 Ry

     The total energy is the sum of the following terms:
     one-electron contribution =     -86.79986158 Ry
     hartree contribution      =      70.40322316 Ry
     xc contribution           =     -49.68086909 Ry
     ewald contribution        =    -267.68581086 Ry

     convergence has been achieved in  20 iterations

     Writing all to output data dir ./tmp_pzt/pzt.save/ :
     XML data file, charge density, pseudopotentials, collected wavefunctions

     init_run     :      5.23s CPU      5.60s WALL (       1 calls)
     electrons    :    208.14s CPU    211.47s WALL (       1 calls)

     Called by init_run:
     wfcinit      :      3.89s CPU      4.15s WALL (       1 calls)
     potinit      :      0.32s CPU      0.32s WALL (       1 calls)
     hinit0       :      0.70s CPU      0.71s WALL (       1 calls)

     Called by electrons:
     c_bands      :    175.12s CPU    176.29s WALL (      20 calls)
     sum_band     :     26.91s CPU     28.15s WALL (      20 calls)
     v_of_rho     :      0.16s CPU      0.17s WALL (      21 calls)
     newd         :      6.06s CPU      7.05s WALL (      21 calls)
     mix_rho      :      0.10s CPU      0.10s WALL (      20 calls)

     Called by c_bands:
     init_us_2    :      5.82s CPU      5.89s WALL (    5166 calls)
     cegterg      :    161.55s CPU    162.59s WALL (    2520 calls)

     Called by *egterg:
     cdiaghg      :      5.68s CPU      5.72s WALL (   13518 calls)
     h_psi        :    121.37s CPU    122.46s WALL (   13644 calls)
     s_psi        :      7.56s CPU      7.61s WALL (   13644 calls)
     g_psi        :      1.50s CPU      1.51s WALL (   10998 calls)

     Called by h_psi:
     h_psi:calbec :      9.75s CPU      9.82s WALL (   13644 calls)
     vloc_psi     :    102.92s CPU    103.72s WALL (   13644 calls)
     add_vuspsi   :      7.92s CPU      7.98s WALL (   13644 calls)

     General routines
     calbec       :     12.22s CPU     12.33s WALL (   16164 calls)
     fft          :      0.30s CPU      0.30s WALL (     123 calls)
     ffts         :      0.27s CPU      0.27s WALL (      41 calls)
     fftw         :     91.60s CPU     92.34s WALL (  418654 calls)
     interpolate  :      0.29s CPU      0.29s WALL (      21 calls)

     Parallel routines

     PWSCF        :   3m33.53s CPU   3m37.42s WALL


   This run was terminated on:  19:38: 4  13Nov2025            

=------------------------------------------------------------------------------=
   JOB DONE.
=------------------------------------------------------------------------------=
