
     Program PWSCF v.7.4.1 starts on 14Nov2025 at  1:27: 0 

     This program is part of the open-source Quantum ESPRESSO suite
     for quantum simulation of materials; please cite
         "P. Giannozzi et al., J. Phys.:Condens. Matter 21 395502 (2009);
         "P. Giannozzi et al., J. Phys.:Condens. Matter 29 465901 (2017);
         "P. Giannozzi et al., J. Chem. Phys. 152 154105 (2020);
          URL http://www.quantum-espresso.org", 
     in publications or presentations arising from this work. More details at
     http://www.quantum-espresso.org/quote

     Parallel version (MPI), running on     1 processors

     MPI processes distributed on     1 nodes
     4910 MiB available memory on the printing compute node when the environment starts

     Reading input from quartz/scf/quartz_hex_relax.in

     Current dimensions of program PWSCF are:
     Max number of different atomic species (ntypx) = 10
     Max number of k-points (npk) =  40000
     Max angular momentum in pseudopotentials (lmaxx) =  4

     IMPORTANT: XC functional enforced from input :
     Exchange-correlation= LDA
                           (   1   1   0   0   0   0   0)
     Any further DFT definition will be discarded
     Please, verify this is what you really want

     Message from routine setup:
     using ibrav=0 with symmetry is DISCOURAGED, use correct ibrav instead

     Subspace diagonalization in iterative solution of the eigenvalue problem:
     a serial algorithm will be used


     G-vector sticks info
     --------------------
     sticks:   dense  smooth     PW     G-vecs:    dense   smooth      PW
     Sum        2857    1417    421               135659    47859    7719

     Using Slab Decomposition



     bravais-lattice index     =            0
     lattice parameter (alat)  =       9.2899  a.u.
     unit-cell volume          =     763.3904 (a.u.)^3
     number of atoms/cell      =            9
     number of atomic types    =            2
     number of electrons       =        48.00
     number of Kohn-Sham states=           24
     kinetic-energy cutoff     =      60.0000  Ry
     charge density cutoff     =     480.0000  Ry
     scf convergence threshold =      1.0E-08
     mixing beta               =       0.3000
     number of iterations used =            8  plain     mixing
     energy convergence thresh.=      1.0E-04
     force convergence thresh. =      1.0E-03
     Exchange-correlation= LDA
                           (   1   1   0   0   0   0   0)
     nstep                     =           50


     celldm(1)=   9.289894  celldm(2)=   0.000000  celldm(3)=   0.000000
     celldm(4)=   0.000000  celldm(5)=   0.000000  celldm(6)=   0.000000

     crystal axes: (cart. coord. in units of alat)
               a(1) = (   1.000000   0.000000   0.000000 )  
               a(2) = (  -0.500000   0.866025   0.000000 )  
               a(3) = (   0.000000   0.000000   1.099471 )  

     reciprocal axes: (cart. coord. in units 2 pi/alat)
               b(1) = (  1.000000  0.577350 -0.000000 )  
               b(2) = (  0.000000  1.154701  0.000000 )  
               b(3) = (  0.000000 -0.000000  0.909528 )  


     PseudoPot. # 1 for Si read from file:
     ./pseudos/Si.pz-vbc.UPF
     MD5 check sum: 9f25e6ff280f3123e9b3a84715b2e9c9
     Pseudo is Norm-conserving, Zval =  4.0
     Generated by new atomic code, or converted to UPF format
     Using radial grid of  431 points,  2 beta functions with: 
                l(1) =   0
                l(2) =   1

     PseudoPot. # 2 for O  read from file:
     ./pseudos/O.pz-van_ak.UPF
     MD5 check sum: b77f3d8cfe972ebbeca95ec6abb46c7c
     Pseudo is Ultrasoft, Zval =  6.0
     Generated by new atomic code, or converted to UPF format
     Using radial grid of  737 points,  4 beta functions with: 
                l(1) =   0
                l(2) =   0
                l(3) =   1
                l(4) =   1
     Q(r) pseudized with  8 coefficients,  rinner =    0.800   0.800   0.800


     atomic species   valence    mass     pseudopotential
     Si                4.00    28.08550     Si( 1.00)
     O                 6.00    15.99940     O ( 1.00)

      6 Sym. Ops. (no inversion) found ( 4 have fractional translation)



   Cartesian axes

     site n.     atom                  positions (alat units)
         1        Si     tau(   1) = (   0.2655452   0.4599369   0.0000000  )
         2        Si     tau(   2) = (   0.4689117   0.0000000   0.3664910  )
         3        Si     tau(   3) = (  -0.2344548   0.4060883   0.7329801  )
         4        O      tau(   4) = (   0.0625264   0.3580106   0.8629658  )
         5        O      tau(   5) = (   0.1586920   0.7411697   0.1299837  )
         6        O      tau(   6) = (  -0.2212185   0.6328723   0.4964748  )
         7        O      tau(   7) = (   0.2787815   0.2331530   0.2365053  )
         8        O      tau(   8) = (   0.5625264   0.5080167   0.9694874  )
         9        O      tau(   9) = (   0.6586920   0.1248556   0.6029963  )

     number of k points=   275

     Number of k-points >= 100: set verbosity='high' to print them.

     Dense  grid:   135659 G-vectors     FFT dimensions: (  72,  72,  72)

     Smooth grid:    47859 G-vectors     FFT dimensions: (  45,  45,  54)

     Estimated max dynamical RAM per process >     820.70 MB

     Initial potential from superposition of free atoms

     starting charge      47.9985, renormalised to      48.0000
     Starting wfcs are   36 randomized atomic wfcs

     total cpu time spent up to now is       23.5 secs

     Self-consistent Calculation

     iteration #  1     ecut=    60.00 Ry     beta= 0.30
     Davidson diagonalization with overlap
     ethr =  1.00E-02,  avg # of iterations =  2.0

     total cpu time spent up to now is       72.1 secs

     total energy              =    -216.71027313 Ry
     estimated scf accuracy    <       2.33462659 Ry

     iteration #  2     ecut=    60.00 Ry     beta= 0.30
     Davidson diagonalization with overlap
     ethr =  4.86E-03,  avg # of iterations =  2.0

     total cpu time spent up to now is      116.1 secs

     total energy              =    -216.92231125 Ry
     estimated scf accuracy    <       0.26632235 Ry

     iteration #  3     ecut=    60.00 Ry     beta= 0.30
     Davidson diagonalization with overlap
     ethr =  5.55E-04,  avg # of iterations =  3.0

     total cpu time spent up to now is      174.8 secs

     total energy              =    -217.01341936 Ry
     estimated scf accuracy    <       0.08280551 Ry

     iteration #  4     ecut=    60.00 Ry     beta= 0.30
     Davidson diagonalization with overlap
     ethr =  1.73E-04,  avg # of iterations =  4.0

     total cpu time spent up to now is      238.1 secs

     total energy              =    -216.99360100 Ry
     estimated scf accuracy    <       0.22219692 Ry

     iteration #  5     ecut=    60.00 Ry     beta= 0.30
     Davidson diagonalization with overlap
     ethr =  1.73E-04,  avg # of iterations =  3.0

     total cpu time spent up to now is      296.8 secs

     total energy              =    -217.03562101 Ry
     estimated scf accuracy    <       0.00044492 Ry

     iteration #  6     ecut=    60.00 Ry     beta= 0.30
     Davidson diagonalization with overlap
     ethr =  9.27E-07,  avg # of iterations =  5.5

     total cpu time spent up to now is      374.8 secs

     total energy              =    -217.03681744 Ry
     estimated scf accuracy    <       0.00008021 Ry

     iteration #  7     ecut=    60.00 Ry     beta= 0.30
     Davidson diagonalization with overlap
     ethr =  1.67E-07,  avg # of iterations =  2.1

     total cpu time spent up to now is      423.8 secs

     total energy              =    -217.03676971 Ry
     estimated scf accuracy    <       0.00012113 Ry

     iteration #  8     ecut=    60.00 Ry     beta= 0.30
     Davidson diagonalization with overlap
     ethr =  1.67E-07,  avg # of iterations =  3.9

     total cpu time spent up to now is      485.5 secs

     total energy              =    -217.03680854 Ry
     estimated scf accuracy    <       0.00017281 Ry

     iteration #  9     ecut=    60.00 Ry     beta= 0.30
     Davidson diagonalization with overlap
     ethr =  1.67E-07,  avg # of iterations =  2.0

     total cpu time spent up to now is      527.7 secs

     total energy              =    -217.03680662 Ry
     estimated scf accuracy    <       0.00004783 Ry

     iteration # 10     ecut=    60.00 Ry     beta= 0.30
     Davidson diagonalization with overlap
     ethr =  9.97E-08,  avg # of iterations =  2.0

     total cpu time spent up to now is      565.5 secs

     total energy              =    -217.03680965 Ry
     estimated scf accuracy    <       0.00001271 Ry

     iteration # 11     ecut=    60.00 Ry     beta= 0.30
     Davidson diagonalization with overlap
     ethr =  2.65E-08,  avg # of iterations =  2.0

     total cpu time spent up to now is      603.1 secs

     total energy              =    -217.03680705 Ry
     estimated scf accuracy    <       0.00000939 Ry

     iteration # 12     ecut=    60.00 Ry     beta= 0.30
     Davidson diagonalization with overlap
     ethr =  1.96E-08,  avg # of iterations =  2.0

     total cpu time spent up to now is      645.6 secs

     total energy              =    -217.03680816 Ry
     estimated scf accuracy    <       0.00000077 Ry

     iteration # 13     ecut=    60.00 Ry     beta= 0.30
     Davidson diagonalization with overlap
     ethr =  1.60E-09,  avg # of iterations =  4.0

     total cpu time spent up to now is      707.6 secs

     total energy              =    -217.03680865 Ry
     estimated scf accuracy    <       0.00000026 Ry

     iteration # 14     ecut=    60.00 Ry     beta= 0.30
     Davidson diagonalization with overlap
     ethr =  5.39E-10,  avg # of iterations =  2.0

     total cpu time spent up to now is      755.0 secs

     End of self-consistent calculation

     Number of k-points >= 100: set verbosity='high' to print the bands.

     highest occupied level (ev):     2.2295

!    total energy              =    -217.03680873 Ry
     estimated scf accuracy    <          5.6E-09 Ry

     The total energy is the sum of the following terms:
     one-electron contribution =    -105.27160675 Ry
     hartree contribution      =      77.21392244 Ry
     xc contribution           =     -49.77473078 Ry
     ewald contribution        =    -139.20439364 Ry

     convergence has been achieved in  14 iterations

     Forces acting on atoms (cartesian axes, Ry/au):

     atom    1 type  1   force =     0.00175899    0.00304666   -0.00000000
     atom    2 type  1   force =    -0.00351798    0.00000000    0.00000000
     atom    3 type  1   force =     0.00175899   -0.00304666    0.00000000
     atom    4 type  2   force =     0.00300841   -0.00946967   -0.00891915
     atom    5 type  2   force =     0.00669677    0.00734020   -0.00891915
     atom    6 type  2   force =    -0.00970518    0.00212948   -0.00891915
     atom    7 type  2   force =    -0.00970518   -0.00212948    0.00891915
     atom    8 type  2   force =     0.00300841    0.00946967    0.00891915
     atom    9 type  2   force =     0.00669677   -0.00734020    0.00891915

     Total force =     0.033268     Total SCF correction =     0.000227


     Computing stress (Cartesian axis) and pressure

          total   stress  (Ry/bohr**3)                   (kbar)     P=       43.62
   0.00028366   0.00000000   0.00000000           41.73        0.00        0.00
   0.00000000   0.00028366   0.00000000            0.00       41.73        0.00
   0.00000000   0.00000000   0.00032227            0.00        0.00       47.41


     BFGS Geometry Optimization
     Energy error            =      1.1E-03 Ry
     Gradient error          =      9.7E-03 Ry/Bohr

     number of scf cycles    =   1
     number of bfgs steps    =   0

     energy             new  =    -217.0368087251 Ry

     new trust radius        =       0.0133520178 bohr
     new conv_thr            =       0.0000000100 Ry


ATOMIC_POSITIONS (angstrom)
Si               1.3063508173        2.2626622228       -0.0000000000
Si               2.3033083654        0.0000000000        1.8016700000
Si              -1.1516491827        1.9947177772        3.6033300000
O                0.3089719817        1.7549688651        4.2376201915
O                0.7836737793        3.6474742640        0.6342801915
O               -1.0926457610        3.1123268709        2.4359501915
O                1.3653542390        1.1450531291        1.1673798085
O                2.7669719817        2.5024211349        4.7707198085
O                3.2416737793        0.6099057360        2.9690498085



     Writing config-only to output data dir ./tmp_quartz_hex/quartz_hex.save/ :
     XML data file
     NEW-OLD atomic charge density approx. for the potential

     total cpu time spent up to now is      771.5 secs

     Self-consistent Calculation

     iteration #  1     ecut=    60.00 Ry     beta= 0.30
     Davidson diagonalization with overlap
     ethr =  1.00E-06,  avg # of iterations =  4.0

     total cpu time spent up to now is      842.8 secs

     total energy              =    -217.03773992 Ry
     estimated scf accuracy    <       0.00019964 Ry

     iteration #  2     ecut=    60.00 Ry     beta= 0.30
     Davidson diagonalization with overlap
     ethr =  4.16E-07,  avg # of iterations =  1.0

     total cpu time spent up to now is      876.3 secs

     total energy              =    -217.03769999 Ry
     estimated scf accuracy    <       0.00007207 Ry

     iteration #  3     ecut=    60.00 Ry     beta= 0.30
     Davidson diagonalization with overlap
     ethr =  1.50E-07,  avg # of iterations =  2.0

     total cpu time spent up to now is      922.7 secs

     total energy              =    -217.03771933 Ry
     estimated scf accuracy    <       0.00000301 Ry

     iteration #  4     ecut=    60.00 Ry     beta= 0.30
     Davidson diagonalization with overlap
     ethr =  6.28E-09,  avg # of iterations =  2.0

     total cpu time spent up to now is      969.4 secs

     total energy              =    -217.03771977 Ry
     estimated scf accuracy    <       0.00000066 Ry

     iteration #  5     ecut=    60.00 Ry     beta= 0.30
     Davidson diagonalization with overlap
     ethr =  1.38E-09,  avg # of iterations =  2.0

     total cpu time spent up to now is     1015.2 secs

     total energy              =    -217.03771992 Ry
     estimated scf accuracy    <       0.00000014 Ry

     iteration #  6     ecut=    60.00 Ry     beta= 0.30
     Davidson diagonalization with overlap
     ethr =  2.88E-10,  avg # of iterations =  2.0

     total cpu time spent up to now is     1063.2 secs

     total energy              =    -217.03771992 Ry
     estimated scf accuracy    <       0.00000008 Ry

     iteration #  7     ecut=    60.00 Ry     beta= 0.30
     Davidson diagonalization with overlap
     ethr =  1.77E-10,  avg # of iterations =  2.0

     total cpu time spent up to now is     1110.3 secs

     total energy              =    -217.03771995 Ry
     estimated scf accuracy    <       0.00000002 Ry

     iteration #  8     ecut=    60.00 Ry     beta= 0.30
     Davidson diagonalization with overlap
     ethr =  4.23E-11,  avg # of iterations =  3.0

     total cpu time spent up to now is     1165.0 secs

     End of self-consistent calculation

     Number of k-points >= 100: set verbosity='high' to print the bands.

     highest occupied level (ev):     2.2307

!    total energy              =    -217.03771996 Ry
     estimated scf accuracy    <          8.0E-09 Ry

     The total energy is the sum of the following terms:
     one-electron contribution =    -104.73716228 Ry
     hartree contribution      =      76.95497417 Ry
     xc contribution           =     -49.75404454 Ry
     ewald contribution        =    -139.50148731 Ry

     convergence has been achieved in   8 iterations

     Forces acting on atoms (cartesian axes, Ry/au):

     atom    1 type  1   force =    -0.00094436   -0.00163567    0.00000000
     atom    2 type  1   force =     0.00188871    0.00000000    0.00000000
     atom    3 type  1   force =    -0.00094436    0.00163567    0.00000000
     atom    4 type  2   force =     0.00711475   -0.00669111   -0.00426118
     atom    5 type  2   force =     0.00223730    0.00950711   -0.00426118
     atom    6 type  2   force =    -0.00935205   -0.00281599   -0.00426118
     atom    7 type  2   force =    -0.00935205    0.00281599    0.00426118
     atom    8 type  2   force =     0.00711475    0.00669111    0.00426118
     atom    9 type  2   force =     0.00223730   -0.00950711    0.00426118

     Total force =     0.026306     Total SCF correction =     0.000108


     Computing stress (Cartesian axis) and pressure

          total   stress  (Ry/bohr**3)                   (kbar)     P=       37.32
   0.00025362   0.00000000   0.00000000           37.31        0.00        0.00
   0.00000000   0.00025362   0.00000000            0.00       37.31        0.00
   0.00000000   0.00000000   0.00025384            0.00        0.00       37.34

     Energy error            =      9.1E-04 Ry
     Gradient error          =      9.5E-03 Ry/Bohr

     number of scf cycles    =   2
     number of bfgs steps    =   1

     energy             old  =    -217.0368087251 Ry
     energy             new  =    -217.0377199626 Ry

     CASE: energy            _new < energy            _old

     new trust radius        =       0.0146872196 bohr
     new conv_thr            =       0.0000000009 Ry


ATOMIC_POSITIONS (angstrom)
Si               1.3063871099        2.2627250835       -0.0000000000
Si               2.3032357802        0.0000000000        1.8016700000
Si              -1.1516128901        1.9946549165        3.6033300000
O                0.3128398390        1.7496401199        4.2334909852
O                0.7863546793        3.6534882993        0.6301509852
O               -1.0991945183        3.1116415807        2.4318209852
O                1.3588054817        1.1457384193        1.1715090148
O                2.7708398390        2.5077498801        4.7748490148
O                3.2443546793        0.6038917007        2.9731790148



     Writing config-only to output data dir ./tmp_quartz_hex/quartz_hex.save/ :
     XML data file
     NEW-OLD atomic charge density approx. for the potential

     total cpu time spent up to now is     1181.5 secs

     Self-consistent Calculation

     iteration #  1     ecut=    60.00 Ry     beta= 0.30
     Davidson diagonalization with overlap
     ethr =  1.00E-06,  avg # of iterations =  4.0

     total cpu time spent up to now is     1251.9 secs

     total energy              =    -217.03853358 Ry
     estimated scf accuracy    <       0.00019273 Ry

     iteration #  2     ecut=    60.00 Ry     beta= 0.30
     Davidson diagonalization with overlap
     ethr =  4.02E-07,  avg # of iterations =  1.0

     total cpu time spent up to now is     1285.2 secs

     total energy              =    -217.03849865 Ry
     estimated scf accuracy    <       0.00006834 Ry

     iteration #  3     ecut=    60.00 Ry     beta= 0.30
     Davidson diagonalization with overlap
     ethr =  1.42E-07,  avg # of iterations =  2.0

     total cpu time spent up to now is     1331.0 secs

     total energy              =    -217.03851495 Ry
     estimated scf accuracy    <       0.00000301 Ry

     iteration #  4     ecut=    60.00 Ry     beta= 0.30
     Davidson diagonalization with overlap
     ethr =  6.26E-09,  avg # of iterations =  2.2

     total cpu time spent up to now is     1378.0 secs

     total energy              =    -217.03851559 Ry
     estimated scf accuracy    <       0.00000070 Ry

     iteration #  5     ecut=    60.00 Ry     beta= 0.30
     Davidson diagonalization with overlap
     ethr =  1.45E-09,  avg # of iterations =  2.1

     total cpu time spent up to now is     1423.1 secs

     total energy              =    -217.03851573 Ry
     estimated scf accuracy    <       0.00000018 Ry

     iteration #  6     ecut=    60.00 Ry     beta= 0.30
     Davidson diagonalization with overlap
     ethr =  3.84E-10,  avg # of iterations =  2.0

     total cpu time spent up to now is     1469.6 secs

     total energy              =    -217.03851575 Ry
     estimated scf accuracy    <       0.00000008 Ry

     iteration #  7     ecut=    60.00 Ry     beta= 0.30
     Davidson diagonalization with overlap
     ethr =  1.59E-10,  avg # of iterations =  2.0

     total cpu time spent up to now is     1515.9 secs

     total energy              =    -217.03851578 Ry
     estimated scf accuracy    <       0.00000001 Ry

     iteration #  8     ecut=    60.00 Ry     beta= 0.30
     Davidson diagonalization with overlap
     ethr =  2.76E-11,  avg # of iterations =  3.9

     total cpu time spent up to now is     1576.6 secs

     total energy              =    -217.03851597 Ry
     estimated scf accuracy    <       0.00000003 Ry

     iteration #  9     ecut=    60.00 Ry     beta= 0.30
     Davidson diagonalization with overlap
     ethr =  2.76E-11,  avg # of iterations =  3.0

     total cpu time spent up to now is     1629.8 secs

     End of self-consistent calculation

     Number of k-points >= 100: set verbosity='high' to print the bands.

     highest occupied level (ev):     2.2320

!    total energy              =    -217.03851598 Ry
     estimated scf accuracy    <          7.1E-10 Ry

     The total energy is the sum of the following terms:
     one-electron contribution =    -104.13694353 Ry
     hartree contribution      =      76.66544042 Ry
     xc contribution           =     -49.73049570 Ry
     ewald contribution        =    -139.83651717 Ry

     convergence has been achieved in   9 iterations

     Forces acting on atoms (cartesian axes, Ry/au):

     atom    1 type  1   force =    -0.00044589   -0.00077231    0.00000000
     atom    2 type  1   force =     0.00089179   -0.00000000   -0.00000000
     atom    3 type  1   force =    -0.00044589    0.00077231    0.00000000
     atom    4 type  2   force =     0.00635304   -0.00409014   -0.00311950
     atom    5 type  2   force =     0.00036565    0.00754696   -0.00311950
     atom    6 type  2   force =    -0.00671868   -0.00345682   -0.00311950
     atom    7 type  2   force =    -0.00671868    0.00345682    0.00311950
     atom    8 type  2   force =     0.00635304    0.00409014    0.00311950
     atom    9 type  2   force =     0.00036565   -0.00754696    0.00311950

     Total force =     0.020083     Total SCF correction =     0.000065


     Computing stress (Cartesian axis) and pressure

          total   stress  (Ry/bohr**3)                   (kbar)     P=       30.34
   0.00020537   0.00000000   0.00000000           30.21        0.00        0.00
   0.00000000   0.00020537   0.00000000            0.00       30.21        0.00
   0.00000000   0.00000000   0.00020806            0.00        0.00       30.61

     Energy error            =      8.0E-04 Ry
     Gradient error          =      7.5E-03 Ry/Bohr

     number of scf cycles    =   3
     number of bfgs steps    =   2

     energy             old  =    -217.0377199626 Ry
     energy             new  =    -217.0385159824 Ry

     CASE: energy            _new < energy            _old

     new trust radius        =       0.0220308294 bohr
     new conv_thr            =       0.0000000008 Ry


ATOMIC_POSITIONS (angstrom)
Si               1.3068113143        2.2634598270        0.0000000000
Si               2.3023873715        0.0000000000        1.8016700000
Si              -1.1511886857        1.9939201730        3.6033300000
O                0.3195409403        1.7424779400        4.2271892119
O                0.7892067584        3.6628727132        0.6238492119
O               -1.1087476987        3.1094193468        2.4255192119
O                1.3492523013        1.1479606532        1.1778107881
O                2.7775409403        2.5149120600        4.7811507881
O                3.2472067584        0.5945072868        2.9794807881



     Writing config-only to output data dir ./tmp_quartz_hex/quartz_hex.save/ :
     XML data file
     NEW-OLD atomic charge density approx. for the potential

     total cpu time spent up to now is     1646.2 secs

     Self-consistent Calculation

     iteration #  1     ecut=    60.00 Ry     beta= 0.30
     Davidson diagonalization with overlap
     ethr =  1.00E-06,  avg # of iterations =  4.7

     total cpu time spent up to now is     1721.9 secs

     total energy              =    -217.03933811 Ry
     estimated scf accuracy    <       0.00043457 Ry

     iteration #  2     ecut=    60.00 Ry     beta= 0.30
     Davidson diagonalization with overlap
     ethr =  9.05E-07,  avg # of iterations =  1.0

     total cpu time spent up to now is     1755.8 secs

     total energy              =    -217.03926556 Ry
     estimated scf accuracy    <       0.00015005 Ry

     iteration #  3     ecut=    60.00 Ry     beta= 0.30
     Davidson diagonalization with overlap
     ethr =  3.13E-07,  avg # of iterations =  2.0

     total cpu time spent up to now is     1801.6 secs

     total energy              =    -217.03930058 Ry
     estimated scf accuracy    <       0.00000662 Ry

     iteration #  4     ecut=    60.00 Ry     beta= 0.30
     Davidson diagonalization with overlap
     ethr =  1.38E-08,  avg # of iterations =  2.2

     total cpu time spent up to now is     1848.9 secs

     total energy              =    -217.03930174 Ry
     estimated scf accuracy    <       0.00000178 Ry

     iteration #  5     ecut=    60.00 Ry     beta= 0.30
     Davidson diagonalization with overlap
     ethr =  3.72E-09,  avg # of iterations =  2.0

     total cpu time spent up to now is     1893.8 secs

     total energy              =    -217.03930213 Ry
     estimated scf accuracy    <       0.00000034 Ry

     iteration #  6     ecut=    60.00 Ry     beta= 0.30
     Davidson diagonalization with overlap
     ethr =  7.16E-10,  avg # of iterations =  2.2

     total cpu time spent up to now is     1940.1 secs

     total energy              =    -217.03930218 Ry
     estimated scf accuracy    <       0.00000011 Ry

     iteration #  7     ecut=    60.00 Ry     beta= 0.30
     Davidson diagonalization with overlap
     ethr =  2.39E-10,  avg # of iterations =  2.0

     total cpu time spent up to now is     1987.3 secs

     total energy              =    -217.03930223 Ry
     estimated scf accuracy    <       0.00000003 Ry

     iteration #  8     ecut=    60.00 Ry     beta= 0.30
     Davidson diagonalization with overlap
     ethr =  6.46E-11,  avg # of iterations =  3.1

     total cpu time spent up to now is     2047.7 secs

     total energy              =    -217.03930224 Ry
     estimated scf accuracy    <       0.00000007 Ry

     iteration #  9     ecut=    60.00 Ry     beta= 0.30
     Davidson diagonalization with overlap
     ethr =  6.46E-11,  avg # of iterations =  2.1

     total cpu time spent up to now is     2096.7 secs

     total energy              =    -217.03930226 Ry
     estimated scf accuracy    <          4.5E-09 Ry

     iteration # 10     ecut=    60.00 Ry     beta= 0.30
     Davidson diagonalization with overlap
     ethr =  9.32E-12,  avg # of iterations =  3.0

     total cpu time spent up to now is     2151.4 secs

     End of self-consistent calculation

     Number of k-points >= 100: set verbosity='high' to print the bands.

     highest occupied level (ev):     2.2349

!    total energy              =    -217.03930227 Ry
     estimated scf accuracy    <          1.9E-10 Ry

     The total energy is the sum of the following terms:
     one-electron contribution =    -103.25892183 Ry
     hartree contribution      =      76.24273114 Ry
     xc contribution           =     -49.69527611 Ry
     ewald contribution        =    -140.32783547 Ry

     convergence has been achieved in  10 iterations

     Forces acting on atoms (cartesian axes, Ry/au):

     atom    1 type  1   force =     0.00048568    0.00084121    0.00000000
     atom    2 type  1   force =    -0.00097135   -0.00000000   -0.00000000
     atom    3 type  1   force =     0.00048568   -0.00084121   -0.00000000
     atom    4 type  2   force =     0.00469107   -0.00051287   -0.00185031
     atom    5 type  2   force =    -0.00190138    0.00431902   -0.00185031
     atom    6 type  2   force =    -0.00278969   -0.00380616   -0.00185031
     atom    7 type  2   force =    -0.00278969    0.00380616    0.00185031
     atom    8 type  2   force =     0.00469107    0.00051287    0.00185031
     atom    9 type  2   force =    -0.00190138   -0.00431902    0.00185031

     Total force =     0.012529     Total SCF correction =     0.000056


     Computing stress (Cartesian axis) and pressure

          total   stress  (Ry/bohr**3)                   (kbar)     P=       19.82
   0.00013109  -0.00000000   0.00000000           19.28       -0.00        0.00
  -0.00000000   0.00013109   0.00000000           -0.00       19.28        0.00
   0.00000000   0.00000000   0.00014204            0.00        0.00       20.89

     Energy error            =      7.9E-04 Ry
     Gradient error          =      4.7E-03 Ry/Bohr

     number of scf cycles    =   4
     number of bfgs steps    =   3

     energy             old  =    -217.0385159824 Ry
     energy             new  =    -217.0393022693 Ry

     CASE: energy            _new < energy            _old

     new trust radius        =       0.0262462693 bohr
     new conv_thr            =       0.0000000005 Ry


ATOMIC_POSITIONS (angstrom)
Si               1.3081545143        2.2657863178        0.0000000000
Si               2.2997009713        0.0000000000        1.8016700000
Si              -1.1498454857        1.9915936822        3.6033300000
O                0.3287682668        1.7356505105        4.2193696875
O                0.7905058226        3.6742775271        0.6160296875
O               -1.1192740894        3.1048419624        2.4176996875
O                1.3387259106        1.1525380376        1.1856303125
O                2.7867682668        2.5217394895        4.7889703125
O                3.2485058226        0.5831024729        2.9873003125



     Writing config-only to output data dir ./tmp_quartz_hex/quartz_hex.save/ :
     XML data file
     NEW-OLD atomic charge density approx. for the potential

     total cpu time spent up to now is     2167.9 secs

     Self-consistent Calculation

     iteration #  1     ecut=    60.00 Ry     beta= 0.30
     Davidson diagonalization with overlap
     ethr =  1.00E-06,  avg # of iterations =  5.2

     total cpu time spent up to now is     2247.9 secs

     total energy              =    -217.03976853 Ry
     estimated scf accuracy    <       0.00058181 Ry

     iteration #  2     ecut=    60.00 Ry     beta= 0.30
     Davidson diagonalization with overlap
     ethr =  1.21E-06,  avg # of iterations =  1.0

     total cpu time spent up to now is     2281.4 secs

     total energy              =    -217.03967294 Ry
     estimated scf accuracy    <       0.00020277 Ry

     iteration #  3     ecut=    60.00 Ry     beta= 0.30
     Davidson diagonalization with overlap
     ethr =  4.22E-07,  avg # of iterations =  2.0

     total cpu time spent up to now is     2327.5 secs

     total energy              =    -217.03971498 Ry
     estimated scf accuracy    <       0.00000919 Ry

     iteration #  4     ecut=    60.00 Ry     beta= 0.30
     Davidson diagonalization with overlap
     ethr =  1.91E-08,  avg # of iterations =  2.2

     total cpu time spent up to now is     2374.3 secs

     total energy              =    -217.03971686 Ry
     estimated scf accuracy    <       0.00000217 Ry

     iteration #  5     ecut=    60.00 Ry     beta= 0.30
     Davidson diagonalization with overlap
     ethr =  4.52E-09,  avg # of iterations =  2.0

     total cpu time spent up to now is     2419.1 secs

     total energy              =    -217.03971721 Ry
     estimated scf accuracy    <       0.00000046 Ry

     iteration #  6     ecut=    60.00 Ry     beta= 0.30
     Davidson diagonalization with overlap
     ethr =  9.51E-10,  avg # of iterations =  2.1

     total cpu time spent up to now is     2465.0 secs

     total energy              =    -217.03971731 Ry
     estimated scf accuracy    <       0.00000011 Ry

     iteration #  7     ecut=    60.00 Ry     beta= 0.30
     Davidson diagonalization with overlap
     ethr =  2.38E-10,  avg # of iterations =  2.0

     total cpu time spent up to now is     2512.6 secs

     total energy              =    -217.03971738 Ry
     estimated scf accuracy    <       0.00000003 Ry

     iteration #  8     ecut=    60.00 Ry     beta= 0.30
     Davidson diagonalization with overlap
     ethr =  6.88E-11,  avg # of iterations =  3.0

     total cpu time spent up to now is     2572.3 secs

     total energy              =    -217.03971740 Ry
     estimated scf accuracy    <       0.00000006 Ry

     iteration #  9     ecut=    60.00 Ry     beta= 0.30
     Davidson diagonalization with overlap
     ethr =  6.88E-11,  avg # of iterations =  2.0

     total cpu time spent up to now is     2620.5 secs

     total energy              =    -217.03971742 Ry
     estimated scf accuracy    <          2.9E-09 Ry

     iteration # 10     ecut=    60.00 Ry     beta= 0.30
     Davidson diagonalization with overlap
     ethr =  6.10E-12,  avg # of iterations =  3.1

     total cpu time spent up to now is     2676.0 secs

     End of self-consistent calculation

     Number of k-points >= 100: set verbosity='high' to print the bands.

     highest occupied level (ev):     2.2393

!    total energy              =    -217.03971743 Ry
     estimated scf accuracy    <          4.3E-10 Ry

     The total energy is the sum of the following terms:
     one-electron contribution =    -102.27200107 Ry
     hartree contribution      =      75.76897678 Ry
     xc contribution           =     -49.65456342 Ry
     ewald contribution        =    -140.88212972 Ry

     convergence has been achieved in  10 iterations

     Forces acting on atoms (cartesian axes, Ry/au):

     atom    1 type  1   force =     0.00135555    0.00234789    0.00000000
     atom    2 type  1   force =    -0.00271111    0.00000000   -0.00000000
     atom    3 type  1   force =     0.00135555   -0.00234789   -0.00000000
     atom    4 type  2   force =     0.00257794    0.00314949   -0.00049240
     atom    5 type  2   force =    -0.00401651    0.00065781   -0.00049240
     atom    6 type  2   force =     0.00143857   -0.00380730   -0.00049240
     atom    7 type  2   force =     0.00143857    0.00380730    0.00049240
     atom    8 type  2   force =     0.00257794   -0.00314949    0.00049240
     atom    9 type  2   force =    -0.00401651   -0.00065781    0.00049240

     Total force =     0.011086     Total SCF correction =     0.000077


     Computing stress (Cartesian axis) and pressure

          total   stress  (Ry/bohr**3)                   (kbar)     P=        7.58
   0.00004440  -0.00000000   0.00000000            6.53       -0.00        0.00
  -0.00000000   0.00004440   0.00000000           -0.00        6.53        0.00
   0.00000000   0.00000000   0.00006569            0.00        0.00        9.66

     Energy error            =      4.2E-04 Ry
     Gradient error          =      4.0E-03 Ry/Bohr

     number of scf cycles    =   5
     number of bfgs steps    =   4

     energy             old  =    -217.0393022693 Ry
     energy             new  =    -217.0397174323 Ry

     CASE: energy            _new < energy            _old

     new trust radius        =       0.0085108965 bohr
     new conv_thr            =       0.0000000004 Ry


ATOMIC_POSITIONS (angstrom)
Si               1.3093399282        2.2678395148        0.0000000000
Si               2.2973301436        0.0000000000        1.8016700000
Si              -1.1486600718        1.9895404852        3.6033300000
O                0.3325166026        1.7355048767        4.2168771514
O                0.7887577772        3.6775964981        0.6135371514
O               -1.1212743798        3.1016686252        2.4152071514
O                1.3367256202        1.1557113748        1.1881228486
O                2.7905166026        2.5218851233        4.7914628486
O                3.2467577772        0.5797835019        2.9897928486



     Writing config-only to output data dir ./tmp_quartz_hex/quartz_hex.save/ :
     XML data file
     NEW-OLD atomic charge density approx. for the potential

     total cpu time spent up to now is     2692.3 secs

     Self-consistent Calculation

     iteration #  1     ecut=    60.00 Ry     beta= 0.30
     Davidson diagonalization with overlap
     ethr =  1.00E-06,  avg # of iterations =  3.0

     Threshold (ethr) on eigenvalues was too large:
     Diagonalizing with lowered threshold

     Davidson diagonalization with overlap
     ethr =  9.72E-08,  avg # of iterations =  2.0

     total cpu time spent up to now is     2792.4 secs

     total energy              =    -217.03986108 Ry
     estimated scf accuracy    <       0.00005207 Ry

     iteration #  2     ecut=    60.00 Ry     beta= 0.30
     Davidson diagonalization with overlap
     ethr =  1.08E-07,  avg # of iterations =  1.0

     total cpu time spent up to now is     2825.9 secs

     total energy              =    -217.03985185 Ry
     estimated scf accuracy    <       0.00001987 Ry

     iteration #  3     ecut=    60.00 Ry     beta= 0.30
     Davidson diagonalization with overlap
     ethr =  4.14E-08,  avg # of iterations =  2.0

     total cpu time spent up to now is     2871.9 secs

     total energy              =    -217.03985573 Ry
     estimated scf accuracy    <       0.00000068 Ry

     iteration #  4     ecut=    60.00 Ry     beta= 0.30
     Davidson diagonalization with overlap
     ethr =  1.42E-09,  avg # of iterations =  2.9

     total cpu time spent up to now is     2917.7 secs

     total energy              =    -217.03985576 Ry
     estimated scf accuracy    <       0.00000021 Ry

     iteration #  5     ecut=    60.00 Ry     beta= 0.30
     Davidson diagonalization with overlap
     ethr =  4.41E-10,  avg # of iterations =  2.0

     total cpu time spent up to now is     2961.1 secs

     total energy              =    -217.03985573 Ry
     estimated scf accuracy    <       0.00000003 Ry

     iteration #  6     ecut=    60.00 Ry     beta= 0.30
     Davidson diagonalization with overlap
     ethr =  7.27E-11,  avg # of iterations =  2.0

     total cpu time spent up to now is     3003.5 secs

     total energy              =    -217.03985574 Ry
     estimated scf accuracy    <          8.8E-09 Ry

     iteration #  7     ecut=    60.00 Ry     beta= 0.30
     Davidson diagonalization with overlap
     ethr =  1.84E-11,  avg # of iterations =  3.0

     total cpu time spent up to now is     3053.7 secs

     total energy              =    -217.03985575 Ry
     estimated scf accuracy    <          3.5E-09 Ry

     iteration #  8     ecut=    60.00 Ry     beta= 0.30
     Davidson diagonalization with overlap
     ethr =  7.38E-12,  avg # of iterations =  2.0

     total cpu time spent up to now is     3101.7 secs

     End of self-consistent calculation

     Number of k-points >= 100: set verbosity='high' to print the bands.

     highest occupied level (ev):     2.2407

!    total energy              =    -217.03985576 Ry
     estimated scf accuracy    <          2.2E-10 Ry

     The total energy is the sum of the following terms:
     one-electron contribution =    -102.06088532 Ry
     hartree contribution      =      75.66834948 Ry
     xc contribution           =     -49.64506701 Ry
     ewald contribution        =    -141.00225291 Ry

     convergence has been achieved in   8 iterations

     Forces acting on atoms (cartesian axes, Ry/au):

     atom    1 type  1   force =     0.00135901    0.00235387    0.00000000
     atom    2 type  1   force =    -0.00271802    0.00000000   -0.00000000
     atom    3 type  1   force =     0.00135901   -0.00235387   -0.00000000
     atom    4 type  2   force =     0.00190016    0.00352071   -0.00035160
     atom    5 type  2   force =    -0.00399910   -0.00011477   -0.00035160
     atom    6 type  2   force =     0.00209894   -0.00340594   -0.00035160
     atom    7 type  2   force =     0.00209894    0.00340594    0.00035160
     atom    8 type  2   force =     0.00190016   -0.00352071    0.00035160
     atom    9 type  2   force =    -0.00399910    0.00011477    0.00035160

     Total force =     0.010906     Total SCF correction =     0.000027


     Computing stress (Cartesian axis) and pressure

          total   stress  (Ry/bohr**3)                   (kbar)     P=        4.49
   0.00002254   0.00000000  -0.00000000            3.32        0.00       -0.00
   0.00000000   0.00002254  -0.00000000            0.00        3.32       -0.00
  -0.00000000  -0.00000000   0.00004651           -0.00       -0.00        6.84

     Energy error            =      1.4E-04 Ry
     Gradient error          =      4.0E-03 Ry/Bohr

     number of scf cycles    =   6
     number of bfgs steps    =   5

     energy             old  =    -217.0397174323 Ry
     energy             new  =    -217.0398557576 Ry

     CASE: energy            _new < energy            _old

     new trust radius        =       0.0093619862 bohr
     new conv_thr            =       0.0000000001 Ry


ATOMIC_POSITIONS (angstrom)
Si               1.3109448165        2.2706192630        0.0000000000
Si               2.2941203669        0.0000000000        1.8016700000
Si              -1.1470551835        1.9867607370        3.6033300000
O                0.3366361617        1.7366576795        4.2143783761
O                0.7856996412        3.6805877395        0.6110383761
O               -1.1223358029        3.0975245810        2.4127083761
O                1.3356641971        1.1598554190        1.1906216239
O                2.7946361617        2.5207323205        4.7939616239
O                3.2436996412        0.5767922605        2.9922916239



     Writing config-only to output data dir ./tmp_quartz_hex/quartz_hex.save/ :
     XML data file
     NEW-OLD atomic charge density approx. for the potential

     total cpu time spent up to now is     3118.6 secs

     Self-consistent Calculation

     iteration #  1     ecut=    60.00 Ry     beta= 0.30
     Davidson diagonalization with overlap
     ethr =  1.00E-06,  avg # of iterations =  3.1

     total cpu time spent up to now is     3181.2 secs

     total energy              =    -217.04003546 Ry
     estimated scf accuracy    <       0.00005369 Ry

     iteration #  2     ecut=    60.00 Ry     beta= 0.30
     Davidson diagonalization with overlap
     ethr =  1.12E-07,  avg # of iterations =  2.0

     total cpu time spent up to now is     3220.3 secs

     total energy              =    -217.04002629 Ry
     estimated scf accuracy    <       0.00002414 Ry

     iteration #  3     ecut=    60.00 Ry     beta= 0.30
     Davidson diagonalization with overlap
     ethr =  5.03E-08,  avg # of iterations =  2.1

     total cpu time spent up to now is     3270.7 secs

     total energy              =    -217.04003136 Ry
     estimated scf accuracy    <       0.00000162 Ry

     iteration #  4     ecut=    60.00 Ry     beta= 0.30
     Davidson diagonalization with overlap
     ethr =  3.37E-09,  avg # of iterations =  2.2

     total cpu time spent up to now is     3318.6 secs

     total energy              =    -217.04003171 Ry
     estimated scf accuracy    <       0.00000055 Ry

     iteration #  5     ecut=    60.00 Ry     beta= 0.30
     Davidson diagonalization with overlap
     ethr =  1.14E-09,  avg # of iterations =  2.0

     total cpu time spent up to now is     3362.7 secs

     total energy              =    -217.04003180 Ry
     estimated scf accuracy    <       0.00000007 Ry

     iteration #  6     ecut=    60.00 Ry     beta= 0.30
     Davidson diagonalization with overlap
     ethr =  1.36E-10,  avg # of iterations =  3.3

     total cpu time spent up to now is     3422.4 secs

     total energy              =    -217.04003178 Ry
     estimated scf accuracy    <       0.00000014 Ry

     iteration #  7     ecut=    60.00 Ry     beta= 0.30
     Davidson diagonalization with overlap
     ethr =  1.36E-10,  avg # of iterations =  2.3

     total cpu time spent up to now is     3471.0 secs

     total energy              =    -217.04003180 Ry
     estimated scf accuracy    <          2.5E-09 Ry

     iteration #  8     ecut=    60.00 Ry     beta= 0.30
     Davidson diagonalization with overlap
     ethr =  5.24E-12,  avg # of iterations =  4.0

     total cpu time spent up to now is     3539.9 secs

     total energy              =    -217.04003181 Ry
     estimated scf accuracy    <          3.9E-09 Ry

     iteration #  9     ecut=    60.00 Ry     beta= 0.30
     Davidson diagonalization with overlap
     ethr =  5.24E-12,  avg # of iterations =  2.0

     total cpu time spent up to now is     3581.8 secs

     total energy              =    -217.04003181 Ry
     estimated scf accuracy    <          5.3E-10 Ry

     iteration # 10     ecut=    60.00 Ry     beta= 0.30
     Davidson diagonalization with overlap
     ethr =  1.10E-12,  avg # of iterations =  2.0

     total cpu time spent up to now is     3622.0 secs

     total energy              =    -217.04003181 Ry
     estimated scf accuracy    <          1.8E-10 Ry

     iteration # 11     ecut=    60.00 Ry     beta= 0.30
     Davidson diagonalization with overlap
     ethr =  3.67E-13,  avg # of iterations =  3.0

     total cpu time spent up to now is     3672.2 secs

     End of self-consistent calculation

     Number of k-points >= 100: set verbosity='high' to print the bands.

     highest occupied level (ev):     2.2419

!    total energy              =    -217.04003181 Ry
     estimated scf accuracy    <          1.0E-11 Ry

     The total energy is the sum of the following terms:
     one-electron contribution =    -101.91981781 Ry
     hartree contribution      =      75.60199766 Ry
     xc contribution           =     -49.63803751 Ry
     ewald contribution        =    -141.08417416 Ry

     convergence has been achieved in  11 iterations

     Forces acting on atoms (cartesian axes, Ry/au):

     atom    1 type  1   force =     0.00116547    0.00201866   -0.00000000
     atom    2 type  1   force =    -0.00233095   -0.00000000    0.00000000
     atom    3 type  1   force =     0.00116547   -0.00201866    0.00000000
     atom    4 type  2   force =     0.00128341    0.00340441   -0.00032449
     atom    5 type  2   force =    -0.00359001   -0.00059074   -0.00032449
     atom    6 type  2   force =     0.00230660   -0.00281367   -0.00032449
     atom    7 type  2   force =     0.00230660    0.00281367    0.00032449
     atom    8 type  2   force =     0.00128341   -0.00340441    0.00032449
     atom    9 type  2   force =    -0.00359001    0.00059074    0.00032449

     Total force =     0.009816     Total SCF correction =     0.000006


     Computing stress (Cartesian axis) and pressure

          total   stress  (Ry/bohr**3)                   (kbar)     P=        2.08
   0.00000559   0.00000000   0.00000000            0.82        0.00        0.00
   0.00000000   0.00000559   0.00000000            0.00        0.82        0.00
   0.00000000   0.00000000   0.00003115            0.00        0.00        4.58

     Energy error            =      1.8E-04 Ry
     Gradient error          =      3.6E-03 Ry/Bohr

     number of scf cycles    =   7
     number of bfgs steps    =   6

     energy             old  =    -217.0398557576 Ry
     energy             new  =    -217.0400318141 Ry

     CASE: energy            _new < energy            _old

     new trust radius        =       0.0140429793 bohr
     new conv_thr            =       0.0000000002 Ry


ATOMIC_POSITIONS (angstrom)
Si               1.3134840918        2.2750174168        0.0000000000
Si               2.2890418163        0.0000000000        1.8016700000
Si              -1.1445159082        1.9823625832        3.6033300000
O                0.3425197926        1.7396227042        4.2109411367
O                0.7801900390        3.6842006010        0.6076011367
O               -1.1227098316        3.0909466948        2.4092711367
O                1.3352901684        1.1664333052        1.1940588633
O                2.8005197926        2.5177672958        4.7973988633
O                3.2381900390        0.5731793990        2.9957288633



     Writing config-only to output data dir ./tmp_quartz_hex/quartz_hex.save/ :
     XML data file
     NEW-OLD atomic charge density approx. for the potential

     total cpu time spent up to now is     3688.3 secs

     Self-consistent Calculation

     iteration #  1     ecut=    60.00 Ry     beta= 0.30
     Davidson diagonalization with overlap
     ethr =  1.00E-06,  avg # of iterations =  4.0

     total cpu time spent up to now is     3759.5 secs

     total energy              =    -217.04027798 Ry
     estimated scf accuracy    <       0.00013195 Ry

     iteration #  2     ecut=    60.00 Ry     beta= 0.30
     Davidson diagonalization with overlap
     ethr =  2.75E-07,  avg # of iterations =  1.0

     total cpu time spent up to now is     3792.6 secs

     total energy              =    -217.04025083 Ry
     estimated scf accuracy    <       0.00005501 Ry

     iteration #  3     ecut=    60.00 Ry     beta= 0.30
     Davidson diagonalization with overlap
     ethr =  1.15E-07,  avg # of iterations =  2.1

     total cpu time spent up to now is     3838.6 secs

     total energy              =    -217.04026398 Ry
     estimated scf accuracy    <       0.00000285 Ry

     iteration #  4     ecut=    60.00 Ry     beta= 0.30
     Davidson diagonalization with overlap
     ethr =  5.94E-09,  avg # of iterations =  2.5

     total cpu time spent up to now is     3881.2 secs

     total energy              =    -217.04026418 Ry
     estimated scf accuracy    <       0.00000084 Ry

     iteration #  5     ecut=    60.00 Ry     beta= 0.30
     Davidson diagonalization with overlap
     ethr =  1.74E-09,  avg # of iterations =  2.0

     total cpu time spent up to now is     3926.7 secs

     total energy              =    -217.04026453 Ry
     estimated scf accuracy    <       0.00000019 Ry

     iteration #  6     ecut=    60.00 Ry     beta= 0.30
     Davidson diagonalization with overlap
     ethr =  3.88E-10,  avg # of iterations =  2.2

     total cpu time spent up to now is     3973.2 secs

     total energy              =    -217.04026439 Ry
     estimated scf accuracy    <       0.00000005 Ry

     iteration #  7     ecut=    60.00 Ry     beta= 0.30
     Davidson diagonalization with overlap
     ethr =  9.53E-11,  avg # of iterations =  3.0

     total cpu time spent up to now is     4030.7 secs

     total energy              =    -217.04026441 Ry
     estimated scf accuracy    <       0.00000004 Ry

     iteration #  8     ecut=    60.00 Ry     beta= 0.30
     Davidson diagonalization with overlap
     ethr =  7.48E-11,  avg # of iterations =  2.7

     total cpu time spent up to now is     4080.1 secs

     total energy              =    -217.04026443 Ry
     estimated scf accuracy    <          4.5E-09 Ry

     iteration #  9     ecut=    60.00 Ry     beta= 0.30
     Davidson diagonalization with overlap
     ethr =  9.34E-12,  avg # of iterations =  2.1

     total cpu time spent up to now is     4126.9 secs

     total energy              =    -217.04026443 Ry
     estimated scf accuracy    <          1.2E-09 Ry

     iteration # 10     ecut=    60.00 Ry     beta= 0.30
     Davidson diagonalization with overlap
     ethr =  2.47E-12,  avg # of iterations =  2.0

     total cpu time spent up to now is     4173.5 secs

     End of self-consistent calculation

     Number of k-points >= 100: set verbosity='high' to print the bands.

     highest occupied level (ev):     2.2436

!    total energy              =    -217.04026444 Ry
     estimated scf accuracy    <          1.5E-11 Ry

     The total energy is the sum of the following terms:
     one-electron contribution =    -101.80463671 Ry
     hartree contribution      =      75.54917614 Ry
     xc contribution           =     -49.63102392 Ry
     ewald contribution        =    -141.15377995 Ry

     convergence has been achieved in  10 iterations

     Forces acting on atoms (cartesian axes, Ry/au):

     atom    1 type  1   force =     0.00071243    0.00123396   -0.00000000
     atom    2 type  1   force =    -0.00142486    0.00000000    0.00000000
     atom    3 type  1   force =     0.00071243   -0.00123396    0.00000000
     atom    4 type  2   force =     0.00053654    0.00271602   -0.00038163
     atom    5 type  2   force =    -0.00262042   -0.00089335   -0.00038163
     atom    6 type  2   force =     0.00208387   -0.00182267   -0.00038163
     atom    7 type  2   force =     0.00208387    0.00182267    0.00038163
     atom    8 type  2   force =     0.00053654   -0.00271602    0.00038163
     atom    9 type  2   force =    -0.00262042    0.00089335    0.00038163

     Total force =     0.007277     Total SCF correction =     0.000009


     Computing stress (Cartesian axis) and pressure

          total   stress  (Ry/bohr**3)                   (kbar)     P=       -0.59
  -0.00001282   0.00000000  -0.00000000           -1.89        0.00       -0.00
   0.00000000  -0.00001282  -0.00000000            0.00       -1.89       -0.00
   0.00000000   0.00000000   0.00001362            0.00        0.00        2.00

     Energy error            =      2.3E-04 Ry
     Gradient error          =      2.7E-03 Ry/Bohr

     number of scf cycles    =   8
     number of bfgs steps    =   7

     energy             old  =    -217.0400318141 Ry
     energy             new  =    -217.0402644363 Ry

     CASE: energy            _new < energy            _old

     new trust radius        =       0.0210644689 bohr
     new conv_thr            =       0.0000000002 Ry


ATOMIC_POSITIONS (angstrom)
Si               1.3172270907        2.2815004811        0.0000000000
Si               2.2815558185        0.0000000000        1.8016700000
Si              -1.1407729093        1.9758795189        3.6033300000
O                0.3507160661        1.7454305083        4.2061097304
O                0.7710621964        3.6883948800        0.6027697304
O               -1.1217782624        3.0809446117        2.4044397304
O                1.3362217376        1.1764353883        1.1988902696
O                2.8087160661        2.5119594917        4.8022302696
O                3.2290621964        0.5689851200        3.0005602696



     Writing config-only to output data dir ./tmp_quartz_hex/quartz_hex.save/ :
     XML data file
     NEW-OLD atomic charge density approx. for the potential

     total cpu time spent up to now is     4190.0 secs

     Self-consistent Calculation

     iteration #  1     ecut=    60.00 Ry     beta= 0.30
     Davidson diagonalization with overlap
     ethr =  1.00E-06,  avg # of iterations =  4.5

     total cpu time spent up to now is     4263.9 secs

     total energy              =    -217.04048243 Ry
     estimated scf accuracy    <       0.00030830 Ry

     iteration #  2     ecut=    60.00 Ry     beta= 0.30
     Davidson diagonalization with overlap
     ethr =  6.42E-07,  avg # of iterations =  1.0

     total cpu time spent up to now is     4297.0 secs

     total energy              =    -217.04041958 Ry
     estimated scf accuracy    <       0.00012459 Ry

     iteration #  3     ecut=    60.00 Ry     beta= 0.30
     Davidson diagonalization with overlap
     ethr =  2.60E-07,  avg # of iterations =  2.0

     total cpu time spent up to now is     4344.6 secs

     total energy              =    -217.04045082 Ry
     estimated scf accuracy    <       0.00000571 Ry

     iteration #  4     ecut=    60.00 Ry     beta= 0.30
     Davidson diagonalization with overlap
     ethr =  1.19E-08,  avg # of iterations =  2.5

     total cpu time spent up to now is     4387.0 secs

     total energy              =    -217.04045132 Ry
     estimated scf accuracy    <       0.00000220 Ry

     iteration #  5     ecut=    60.00 Ry     beta= 0.30
     Davidson diagonalization with overlap
     ethr =  4.59E-09,  avg # of iterations =  2.0

     total cpu time spent up to now is     4433.3 secs

     total energy              =    -217.04045126 Ry
     estimated scf accuracy    <       0.00000123 Ry

     iteration #  6     ecut=    60.00 Ry     beta= 0.30
     Davidson diagonalization with overlap
     ethr =  2.56E-09,  avg # of iterations =  2.0

     total cpu time spent up to now is     4477.3 secs

     total energy              =    -217.04045173 Ry
     estimated scf accuracy    <       0.00000002 Ry

     iteration #  7     ecut=    60.00 Ry     beta= 0.30
     Davidson diagonalization with overlap
     ethr =  4.58E-11,  avg # of iterations =  3.8

     total cpu time spent up to now is     4533.3 secs

     total energy              =    -217.04045177 Ry
     estimated scf accuracy    <       0.00000002 Ry

     iteration #  8     ecut=    60.00 Ry     beta= 0.30
     Davidson diagonalization with overlap
     ethr =  3.27E-11,  avg # of iterations =  2.0

     total cpu time spent up to now is     4576.3 secs

     total energy              =    -217.04045182 Ry
     estimated scf accuracy    <          1.0E-09 Ry

     iteration #  9     ecut=    60.00 Ry     beta= 0.30
     Davidson diagonalization with overlap
     ethr =  2.11E-12,  avg # of iterations =  3.0

     total cpu time spent up to now is     4630.2 secs

     total energy              =    -217.04045192 Ry
     estimated scf accuracy    <          2.6E-10 Ry

     iteration # 10     ecut=    60.00 Ry     beta= 0.30
     Davidson diagonalization with overlap
     ethr =  5.42E-13,  avg # of iterations =  3.0

     total cpu time spent up to now is     4682.4 secs

     End of self-consistent calculation

     Number of k-points >= 100: set verbosity='high' to print the bands.

     highest occupied level (ev):     2.2460

!    total energy              =    -217.04045200 Ry
     estimated scf accuracy    <          4.5E-11 Ry

     The total energy is the sum of the following terms:
     one-electron contribution =    -101.74576144 Ry
     hartree contribution      =      75.52574066 Ry
     xc contribution           =     -49.62458349 Ry
     ewald contribution        =    -141.19584772 Ry

     convergence has been achieved in  10 iterations

     Forces acting on atoms (cartesian axes, Ry/au):

     atom    1 type  1   force =    -0.00009365   -0.00016221    0.00000000
     atom    2 type  1   force =     0.00018731    0.00000000   -0.00000000
     atom    3 type  1   force =    -0.00009365    0.00016221    0.00000000
     atom    4 type  2   force =    -0.00033683    0.00113229   -0.00050385
     atom    5 type  2   force =    -0.00081218   -0.00085784   -0.00050385
     atom    6 type  2   force =     0.00114900   -0.00027444   -0.00050385
     atom    7 type  2   force =     0.00114900    0.00027444    0.00050385
     atom    8 type  2   force =    -0.00033683   -0.00113229    0.00050385
     atom    9 type  2   force =    -0.00081218    0.00085784    0.00050385

     Total force =     0.003163     Total SCF correction =     0.000021


     Computing stress (Cartesian axis) and pressure

          total   stress  (Ry/bohr**3)                   (kbar)     P=       -3.36
  -0.00003151   0.00000000   0.00000000           -4.63        0.00        0.00
   0.00000000  -0.00003151   0.00000000            0.00       -4.63        0.00
   0.00000000   0.00000000  -0.00000549            0.00        0.00       -0.81

     Energy error            =      1.9E-04 Ry
     Gradient error          =      1.1E-03 Ry/Bohr

     number of scf cycles    =   9
     number of bfgs steps    =   8

     energy             old  =    -217.0402644363 Ry
     energy             new  =    -217.0404519958 Ry

     CASE: energy            _new < energy            _old

     new trust radius        =       0.0051791946 bohr
     new conv_thr            =       0.0000000001 Ry


ATOMIC_POSITIONS (angstrom)
Si               1.3178877039        2.2826446966        0.0000000000
Si               2.2802345922        0.0000000000        1.8016700000
Si              -1.1401122961        1.9747353034        3.6033300000
O                0.3520546225        1.7476008863        4.2051051275
O                0.7685133157        3.6884689149        0.6017651275
O               -1.1205679382        3.0787001988        2.4034351275
O                1.3374320618        1.1786798012        1.1998948725
O                2.8100546225        2.5097891137        4.8032348725
O                3.2265133157        0.5689110851        3.0015648725



     Writing config-only to output data dir ./tmp_quartz_hex/quartz_hex.save/ :
     XML data file
     NEW-OLD atomic charge density approx. for the potential

     total cpu time spent up to now is     4698.6 secs

     Self-consistent Calculation

     iteration #  1     ecut=    60.00 Ry     beta= 0.30
     Davidson diagonalization with overlap
     ethr =  1.00E-06,  avg # of iterations =  3.0

     Threshold (ethr) on eigenvalues was too large:
     Diagonalizing with lowered threshold

     Davidson diagonalization with overlap
     ethr =  3.62E-08,  avg # of iterations =  2.0

     total cpu time spent up to now is     4794.1 secs

     total energy              =    -217.04047124 Ry
     estimated scf accuracy    <       0.00001995 Ry

     iteration #  2     ecut=    60.00 Ry     beta= 0.30
     Davidson diagonalization with overlap
     ethr =  4.16E-08,  avg # of iterations =  1.0

     total cpu time spent up to now is     4827.0 secs

     total energy              =    -217.04046704 Ry
     estimated scf accuracy    <       0.00000744 Ry

     iteration #  3     ecut=    60.00 Ry     beta= 0.30
     Davidson diagonalization with overlap
     ethr =  1.55E-08,  avg # of iterations =  2.0

     total cpu time spent up to now is     4872.1 secs

     total energy              =    -217.04046905 Ry
     estimated scf accuracy    <       0.00000038 Ry

     iteration #  4     ecut=    60.00 Ry     beta= 0.30
     Davidson diagonalization with overlap
     ethr =  7.88E-10,  avg # of iterations =  2.3

     total cpu time spent up to now is     4917.4 secs

     total energy              =    -217.04046914 Ry
     estimated scf accuracy    <       0.00000007 Ry

     iteration #  5     ecut=    60.00 Ry     beta= 0.30
     Davidson diagonalization with overlap
     ethr =  1.52E-10,  avg # of iterations =  2.3

     total cpu time spent up to now is     4954.6 secs

     total energy              =    -217.04046915 Ry
     estimated scf accuracy    <          3.6E-09 Ry

     iteration #  6     ecut=    60.00 Ry     beta= 0.30
     Davidson diagonalization with overlap
     ethr =  7.42E-12,  avg # of iterations =  4.3

     total cpu time spent up to now is     5006.4 secs

     total energy              =    -217.04046916 Ry
     estimated scf accuracy    <          1.0E-09 Ry

     iteration #  7     ecut=    60.00 Ry     beta= 0.30
     Davidson diagonalization with overlap
     ethr =  2.09E-12,  avg # of iterations =  2.2

     total cpu time spent up to now is     5054.2 secs

     total energy              =    -217.04046916 Ry
     estimated scf accuracy    <          4.5E-10 Ry

     iteration #  8     ecut=    60.00 Ry     beta= 0.30
     Davidson diagonalization with overlap
     ethr =  9.37E-13,  avg # of iterations =  2.0

     total cpu time spent up to now is     5097.4 secs

     End of self-consistent calculation

     Number of k-points >= 100: set verbosity='high' to print the bands.

     highest occupied level (ev):     2.2464

!    total energy              =    -217.04046916 Ry
     estimated scf accuracy    <          1.0E-11 Ry

     The total energy is the sum of the following terms:
     one-electron contribution =    -101.80629978 Ry
     hartree contribution      =      75.55620611 Ry
     xc contribution           =     -49.62585330 Ry
     ewald contribution        =    -141.16452219 Ry

     convergence has been achieved in   8 iterations

     Forces acting on atoms (cartesian axes, Ry/au):

     atom    1 type  1   force =    -0.00031888   -0.00055231    0.00000000
     atom    2 type  1   force =     0.00063775    0.00000000   -0.00000000
     atom    3 type  1   force =    -0.00031888    0.00055231   -0.00000000
     atom    4 type  2   force =    -0.00031446    0.00043467   -0.00050353
     atom    5 type  2   force =    -0.00021920   -0.00048966   -0.00050353
     atom    6 type  2   force =     0.00053366    0.00005500   -0.00050353
     atom    7 type  2   force =     0.00053366   -0.00005500    0.00050353
     atom    8 type  2   force =    -0.00031446   -0.00043467    0.00050353
     atom    9 type  2   force =    -0.00021920    0.00048966    0.00050353

     Total force =     0.002114     Total SCF correction =     0.000014


     Computing stress (Cartesian axis) and pressure

          total   stress  (Ry/bohr**3)                   (kbar)     P=       -3.18
  -0.00002965   0.00000000   0.00000000           -4.36        0.00        0.00
   0.00000000  -0.00002965   0.00000000            0.00       -4.36        0.00
   0.00000000   0.00000000  -0.00000562            0.00        0.00       -0.83

     Energy error            =      1.7E-05 Ry
     Gradient error          =      6.4E-04 Ry/Bohr

     bfgs converged in  10 scf cycles and   9 bfgs steps
     (criteria: energy <  1.0E-04 Ry, force <  1.0E-03 Ry/Bohr)

     End of BFGS Geometry Optimization

     Final energy             =    -217.0404691620 Ry

     File ./tmp_quartz_hex/quartz_hex.bfgs deleted, as requested
Begin final coordinates

ATOMIC_POSITIONS (angstrom)
Si               1.3178877039        2.2826446966        0.0000000000
Si               2.2802345922        0.0000000000        1.8016700000
Si              -1.1401122961        1.9747353034        3.6033300000
O                0.3520546225        1.7476008863        4.2051051275
O                0.7685133157        3.6884689149        0.6017651275
O               -1.1205679382        3.0787001988        2.4034351275
O                1.3374320618        1.1786798012        1.1998948725
O                2.8100546225        2.5097891137        4.8032348725
O                3.2265133157        0.5689110851        3.0015648725
End final coordinates



     Writing all to output data dir ./tmp_quartz_hex/quartz_hex.save/ :
     XML data file, charge density, pseudopotentials, collected wavefunctions

     init_run     :     22.90s CPU     23.37s WALL (       1 calls)
     electrons    :   4906.84s CPU   4926.17s WALL (      10 calls)
     update_pot   :      0.27s CPU      0.29s WALL (       9 calls)
     forces       :     33.28s CPU     33.54s WALL (      10 calls)
     stress       :    128.80s CPU    129.27s WALL (      10 calls)

     Called by init_run:
     wfcinit      :     21.88s CPU     22.26s WALL (       1 calls)
     potinit      :      0.22s CPU      0.23s WALL (       1 calls)
     hinit0       :      0.55s CPU      0.58s WALL (       1 calls)

     Called by electrons:
     c_bands      :   4331.37s CPU   4346.96s WALL (     100 calls)
     sum_band     :    566.20s CPU    569.03s WALL (     100 calls)
     v_of_rho     :      1.91s CPU      1.96s WALL (     108 calls)
     newd         :      6.54s CPU      7.40s WALL (     108 calls)
     mix_rho      :      0.87s CPU      0.91s WALL (     100 calls)

     Called by c_bands:
     init_us_2    :     96.36s CPU     96.94s WALL (   60775 calls)
     cegterg      :   4169.88s CPU   4184.56s WALL (   27500 calls)

     Called by *egterg:
     cdiaghg      :     48.98s CPU     49.19s WALL (   92467 calls)
     h_psi        :   3409.89s CPU   3422.80s WALL (   95767 calls)
     s_psi        :    143.59s CPU    144.03s WALL (   95767 calls)
     g_psi        :     30.72s CPU     30.81s WALL (   67992 calls)

     Called by h_psi:
     h_psi:calbec :    168.32s CPU    169.03s WALL (   95767 calls)
     vloc_psi     :   3079.47s CPU   3091.06s WALL (   95767 calls)
     add_vuspsi   :    147.93s CPU    148.56s WALL (   95767 calls)

     General routines
     calbec       :    302.26s CPU    303.34s WALL (  170017 calls)
     fft          :      2.20s CPU      2.25s WALL (     689 calls)
     ffts         :      0.36s CPU      0.36s WALL (     208 calls)
     fftw         :   2870.73s CPU   2881.50s WALL ( 4698164 calls)
     interpolate  :      0.64s CPU      0.64s WALL (     108 calls)

     Parallel routines

     PWSCF        :      1h24m CPU      1h25m WALL


   This run was terminated on:   2:52:15  14Nov2025            

=------------------------------------------------------------------------------=
   JOB DONE.
=------------------------------------------------------------------------------=
