
     Program PWSCF v.7.4.1 starts on 13Nov2025 at 18:38:10 

     This program is part of the open-source Quantum ESPRESSO suite
     for quantum simulation of materials; please cite
         "P. Giannozzi et al., J. Phys.:Condens. Matter 21 395502 (2009);
         "P. Giannozzi et al., J. Phys.:Condens. Matter 29 465901 (2017);
         "P. Giannozzi et al., J. Chem. Phys. 152 154105 (2020);
          URL http://www.quantum-espresso.org", 
     in publications or presentations arising from this work. More details at
     http://www.quantum-espresso.org/quote

     Parallel version (MPI), running on     1 processors

     MPI processes distributed on     1 nodes
     4247 MiB available memory on the printing compute node when the environment starts

     Reading input from quartz/scf/quartz_scf_nk10.in

     Current dimensions of program PWSCF are:
     Max number of different atomic species (ntypx) = 10
     Max number of k-points (npk) =  40000
     Max angular momentum in pseudopotentials (lmaxx) =  4

     IMPORTANT: XC functional enforced from input :
     Exchange-correlation= LDA
                           (   1   1   0   0   0   0   0)
     Any further DFT definition will be discarded
     Please, verify this is what you really want


     Subspace diagonalization in iterative solution of the eigenvalue problem:
     a serial algorithm will be used


     G-vector sticks info
     --------------------
     sticks:   dense  smooth     PW     G-vecs:    dense   smooth      PW
     Sum        2773    1375    409               134717    47547    7731

     Using Slab Decomposition



     bravais-lattice index     =            0
     lattice parameter (alat)  =       9.2989  a.u.
     unit-cell volume          =     758.2272 (a.u.)^3
     number of atoms/cell      =            9
     number of atomic types    =            2
     number of electrons       =        48.00
     number of Kohn-Sham states=           24
     kinetic-energy cutoff     =      60.0000  Ry
     charge density cutoff     =     480.0000  Ry
     scf convergence threshold =      1.0E-08
     mixing beta               =       0.3000
     number of iterations used =            8  plain     mixing
     Exchange-correlation= LDA
                           (   1   1   0   0   0   0   0)

     celldm(1)=   9.298910  celldm(2)=   0.000000  celldm(3)=   0.000000
     celldm(4)=   0.000000  celldm(5)=   0.000000  celldm(6)=   0.000000

     crystal axes: (cart. coord. in units of alat)
               a(1) = (   0.999751  -0.015585  -0.015945 )  
               a(2) = (  -0.519752   0.844339   0.049763 )  
               a(3) = (  -0.010166   0.059480   1.131034 )  

     reciprocal axes: (cart. coord. in units 2 pi/alat)
               b(1) = (  1.009581  0.622866 -0.023682 )  
               b(2) = (  0.017688  1.198953 -0.062892 )  
               b(3) = (  0.013454 -0.043970  0.886580 )  


     PseudoPot. # 1 for Si read from file:
     ./pseudos/Si.pz-vbc.UPF
     MD5 check sum: 9f25e6ff280f3123e9b3a84715b2e9c9
     Pseudo is Norm-conserving, Zval =  4.0
     Generated by new atomic code, or converted to UPF format
     Using radial grid of  431 points,  2 beta functions with: 
                l(1) =   0
                l(2) =   1

     PseudoPot. # 2 for O  read from file:
     ./pseudos/O.pz-van_ak.UPF
     MD5 check sum: b77f3d8cfe972ebbeca95ec6abb46c7c
     Pseudo is Ultrasoft, Zval =  6.0
     Generated by new atomic code, or converted to UPF format
     Using radial grid of  737 points,  4 beta functions with: 
                l(1) =   0
                l(2) =   0
                l(3) =   1
                l(4) =   1
     Q(r) pseudized with  8 coefficients,  rinner =    0.800   0.800   0.800


     atomic species   valence    mass     pseudopotential
     Si                4.00    28.08550     Si( 1.00)
     O                 6.00    15.99940     O ( 1.00)

     No symmetry found



   Cartesian axes

     site n.     atom                  positions (alat units)
         1        Si     tau(   1) = (   0.4588246  -0.0023534  -0.0044975  )
         2        Si     tau(   2) = (  -0.2563466   0.4758311   0.7589465  )
         3        Si     tau(   3) = (   0.2309565   0.4000206   0.3933443  )
         4        O      tau(   4) = (   0.2430173   0.1052836   0.2301808  )
         5        O      tau(   5) = (   0.5411359   0.4214017   0.4913334  )
         6        O      tau(   6) = (   0.5792560   0.3499649   1.0380424  )
         7        O      tau(   7) = (   0.1709643   0.6768396   0.2187895  )
         8        O      tau(   8) = (   0.0435175   0.3606108   0.6602634  )
         9        O      tau(   9) = (  -0.1319886   0.7653338   0.8730056  )

     number of k points=   500

     Number of k-points >= 100: set verbosity='high' to print them.

     Dense  grid:   134717 G-vectors     FFT dimensions: (  72,  72,  75)

     Smooth grid:    47547 G-vectors     FFT dimensions: (  45,  45,  54)

     Estimated max dynamical RAM per process >       1.26 GB

     Initial potential from superposition of free atoms

     starting charge      47.9985, renormalised to      48.0000
     Starting wfcs are   36 randomized atomic wfcs

     total cpu time spent up to now is       41.9 secs

     Self-consistent Calculation

     iteration #  1     ecut=    60.00 Ry     beta= 0.30
     Davidson diagonalization with overlap
     ethr =  1.00E-02,  avg # of iterations =  2.0

     total cpu time spent up to now is      130.4 secs

     total energy              =    -216.60295353 Ry
     estimated scf accuracy    <       2.35002852 Ry

     iteration #  2     ecut=    60.00 Ry     beta= 0.30
     Davidson diagonalization with overlap
     ethr =  4.90E-03,  avg # of iterations =  2.0

     total cpu time spent up to now is      212.4 secs

     total energy              =    -216.82484960 Ry
     estimated scf accuracy    <       0.26254070 Ry

     iteration #  3     ecut=    60.00 Ry     beta= 0.30
     Davidson diagonalization with overlap
     ethr =  5.47E-04,  avg # of iterations =  3.0

     total cpu time spent up to now is      321.6 secs

     total energy              =    -216.90950962 Ry
     estimated scf accuracy    <       0.09543575 Ry

     iteration #  4     ecut=    60.00 Ry     beta= 0.30
     Davidson diagonalization with overlap
     ethr =  1.99E-04,  avg # of iterations =  3.0

     total cpu time spent up to now is      431.2 secs

     total energy              =    -216.91029876 Ry
     estimated scf accuracy    <       0.16882100 Ry

     iteration #  5     ecut=    60.00 Ry     beta= 0.30
     Davidson diagonalization with overlap
     ethr =  1.99E-04,  avg # of iterations =  2.0

     total cpu time spent up to now is      521.4 secs

     total energy              =    -216.93803749 Ry
     estimated scf accuracy    <       0.00265969 Ry

     iteration #  6     ecut=    60.00 Ry     beta= 0.30
     Davidson diagonalization with overlap
     ethr =  5.54E-06,  avg # of iterations =  5.0

     total cpu time spent up to now is      654.7 secs

     total energy              =    -216.94168313 Ry
     estimated scf accuracy    <       0.00222591 Ry

     iteration #  7     ecut=    60.00 Ry     beta= 0.30
     Davidson diagonalization with overlap
     ethr =  4.64E-06,  avg # of iterations =  1.0

     total cpu time spent up to now is      716.8 secs

     total energy              =    -216.94156006 Ry
     estimated scf accuracy    <       0.00077611 Ry

     iteration #  8     ecut=    60.00 Ry     beta= 0.30
     Davidson diagonalization with overlap
     ethr =  1.62E-06,  avg # of iterations =  1.8

     total cpu time spent up to now is      782.1 secs

     total energy              =    -216.94150482 Ry
     estimated scf accuracy    <       0.00021918 Ry

     iteration #  9     ecut=    60.00 Ry     beta= 0.30
     Davidson diagonalization with overlap
     ethr =  4.57E-07,  avg # of iterations =  2.0

     total cpu time spent up to now is      869.0 secs

     total energy              =    -216.94158300 Ry
     estimated scf accuracy    <       0.00000487 Ry

     iteration # 10     ecut=    60.00 Ry     beta= 0.30
     Davidson diagonalization with overlap
     ethr =  1.02E-08,  avg # of iterations =  4.5

     total cpu time spent up to now is      996.3 secs

     total energy              =    -216.94158562 Ry
     estimated scf accuracy    <       0.00003450 Ry

     iteration # 11     ecut=    60.00 Ry     beta= 0.30
     Davidson diagonalization with overlap
     ethr =  1.02E-08,  avg # of iterations =  1.1

     total cpu time spent up to now is     1058.7 secs

     total energy              =    -216.94157288 Ry
     estimated scf accuracy    <       0.00002432 Ry

     iteration # 12     ecut=    60.00 Ry     beta= 0.30
     Davidson diagonalization with overlap
     ethr =  1.02E-08,  avg # of iterations =  4.0

     total cpu time spent up to now is     1178.8 secs

     total energy              =    -216.94157904 Ry
     estimated scf accuracy    <       0.00000030 Ry

     iteration # 13     ecut=    60.00 Ry     beta= 0.30
     Davidson diagonalization with overlap
     ethr =  6.34E-10,  avg # of iterations =  3.0

     total cpu time spent up to now is     1266.0 secs

     total energy              =    -216.94157909 Ry
     estimated scf accuracy    <       0.00000006 Ry

     iteration # 14     ecut=    60.00 Ry     beta= 0.30
     Davidson diagonalization with overlap
     ethr =  1.21E-10,  avg # of iterations =  2.2

     total cpu time spent up to now is     1346.5 secs

     total energy              =    -216.94157910 Ry
     estimated scf accuracy    <       0.00000005 Ry

     iteration # 15     ecut=    60.00 Ry     beta= 0.30
     Davidson diagonalization with overlap
     ethr =  1.11E-10,  avg # of iterations =  1.0

     total cpu time spent up to now is     1408.5 secs

     total energy              =    -216.94157910 Ry
     estimated scf accuracy    <       0.00000005 Ry

     iteration # 16     ecut=    60.00 Ry     beta= 0.30
     Davidson diagonalization with overlap
     ethr =  9.72E-11,  avg # of iterations =  3.0

     total cpu time spent up to now is     1505.2 secs

     End of self-consistent calculation

     Number of k-points >= 100: set verbosity='high' to print the bands.

     highest occupied level (ev):     2.6313

!    total energy              =    -216.94157909 Ry
     estimated scf accuracy    <          6.4E-09 Ry

     The total energy is the sum of the following terms:
     one-electron contribution =    -102.56123446 Ry
     hartree contribution      =      76.37171693 Ry
     xc contribution           =     -49.50988852 Ry
     ewald contribution        =    -141.24217304 Ry

     convergence has been achieved in  16 iterations

     Writing all to output data dir ./tmp/quartz.save/ :
     XML data file, charge density, pseudopotentials, collected wavefunctions

     init_run     :     41.26s CPU     41.88s WALL (       1 calls)
     electrons    :   1458.17s CPU   1463.34s WALL (       1 calls)

     Called by init_run:
     wfcinit      :     40.10s CPU     40.68s WALL (       1 calls)
     potinit      :      0.23s CPU      0.24s WALL (       1 calls)
     hinit0       :      0.54s CPU      0.55s WALL (       1 calls)

     Called by electrons:
     c_bands      :   1283.00s CPU   1287.27s WALL (      16 calls)
     sum_band     :    173.60s CPU    174.38s WALL (      16 calls)
     v_of_rho     :      0.31s CPU      0.32s WALL (      17 calls)
     newd         :      1.05s CPU      1.18s WALL (      17 calls)
     mix_rho      :      0.17s CPU      0.17s WALL (      16 calls)

     Called by c_bands:
     init_us_2    :     26.33s CPU     26.53s WALL (   16500 calls)
     cegterg      :   1236.30s CPU   1240.26s WALL (    8000 calls)

     Called by *egterg:
     cdiaghg      :     14.87s CPU     14.92s WALL (   28331 calls)
     h_psi        :   1042.64s CPU   1046.58s WALL (   28831 calls)
     s_psi        :     42.52s CPU     42.68s WALL (   28831 calls)
     g_psi        :      8.90s CPU      8.92s WALL (   20331 calls)

     Called by h_psi:
     h_psi:calbec :     49.26s CPU     49.44s WALL (   28831 calls)
     vloc_psi     :    945.47s CPU    948.91s WALL (   28831 calls)
     add_vuspsi   :     43.48s CPU     43.67s WALL (   28831 calls)

     General routines
     calbec       :     64.49s CPU     64.77s WALL (   36831 calls)
     fft          :      0.69s CPU      0.70s WALL (      99 calls)
     ffts         :      0.20s CPU      0.20s WALL (      33 calls)
     fftw         :    881.15s CPU    884.34s WALL ( 1400510 calls)
     interpolate  :      0.25s CPU      0.25s WALL (      17 calls)

     Parallel routines

     PWSCF        :  25m 0.04s CPU  25m 7.85s WALL


   This run was terminated on:  19: 3:18  13Nov2025            

=------------------------------------------------------------------------------=
   JOB DONE.
=------------------------------------------------------------------------------=
