nohup: ignoring input

     Program PWSCF v.7.4.1 starts on 12Nov2025 at 15:42:37 

     This program is part of the open-source Quantum ESPRESSO suite
     for quantum simulation of materials; please cite
         "P. Giannozzi et al., J. Phys.:Condens. Matter 21 395502 (2009);
         "P. Giannozzi et al., J. Phys.:Condens. Matter 29 465901 (2017);
         "P. Giannozzi et al., J. Chem. Phys. 152 154105 (2020);
          URL http://www.quantum-espresso.org", 
     in publications or presentations arising from this work. More details at
     http://www.quantum-espresso.org/quote

     Parallel version (MPI), running on     4 processors

     MPI processes distributed on     1 nodes
     3875 MiB available memory on the printing compute node when the environment starts

     Reading input from quartz/scf/quartz_relax.in

     Current dimensions of program PWSCF are:
     Max number of different atomic species (ntypx) = 10
     Max number of k-points (npk) =  40000
     Max angular momentum in pseudopotentials (lmaxx) =  4

     File ./tmp/quartz.update deleted, as requested

     File ./tmp/quartz.bfgs deleted, as requested

     IMPORTANT: XC functional enforced from input :
     Exchange-correlation= LDA
                           (   1   1   0   0   0   0   0)
     Any further DFT definition will be discarded
     Please, verify this is what you really want


     R & G space division:  proc/nbgrp/npool/nimage =       4
     Subspace diagonalization in iterative solution of the eigenvalue problem:
     a serial algorithm will be used


     Parallelization info
     --------------------
     sticks:   dense  smooth     PW     G-vecs:    dense   smooth      PW
     Min         714     354    104                33849    11938    1827
     Max         715     355    106                33850    11943    1828
     Sum        2857    1417    421               135399    47759    7311

     Using Slab Decomposition



     bravais-lattice index     =            0
     lattice parameter (alat)  =       9.2850  a.u.
     unit-cell volume          =     762.3807 (a.u.)^3
     number of atoms/cell      =            9
     number of atomic types    =            2
     number of electrons       =        48.00
     number of Kohn-Sham states=           24
     kinetic-energy cutoff     =      60.0000  Ry
     charge density cutoff     =     480.0000  Ry
     scf convergence threshold =      1.0E-08
     mixing beta               =       0.3000
     number of iterations used =            8  plain     mixing
     energy convergence thresh.=      1.0E-05
     force convergence thresh. =      1.0E-04
     press convergence thresh. =      5.0E-01
     Exchange-correlation= LDA
                           (   1   1   0   0   0   0   0)
     nstep                     =           50


     celldm(1)=   9.284980  celldm(2)=   0.000000  celldm(3)=   0.000000
     celldm(4)=   0.000000  celldm(5)=   0.000000  celldm(6)=   0.000000

     crystal axes: (cart. coord. in units of alat)
               a(1) = (   1.000000   0.000000   0.000000 )  
               a(2) = (  -0.500000   0.865796   0.000000 )  
               a(3) = (   0.000000   0.000000   1.100053 )  

     reciprocal axes: (cart. coord. in units 2 pi/alat)
               b(1) = (  1.000000  0.577504 -0.000000 )  
               b(2) = (  0.000000  1.155007  0.000000 )  
               b(3) = (  0.000000 -0.000000  0.909047 )  


     PseudoPot. # 1 for Si read from file:
     ./pseudos/Si.pz-vbc.UPF
     MD5 check sum: 9f25e6ff280f3123e9b3a84715b2e9c9
     Pseudo is Norm-conserving, Zval =  4.0
     Generated by new atomic code, or converted to UPF format
     Using radial grid of  431 points,  2 beta functions with: 
                l(1) =   0
                l(2) =   1

     PseudoPot. # 2 for O  read from file:
     ./pseudos/O.pz-van_ak.UPF
     MD5 check sum: b77f3d8cfe972ebbeca95ec6abb46c7c
     Pseudo is Ultrasoft, Zval =  6.0
     Generated by new atomic code, or converted to UPF format
     Using radial grid of  737 points,  4 beta functions with: 
                l(1) =   0
                l(2) =   0
                l(3) =   1
                l(4) =   1
     Q(r) pseudized with  8 coefficients,  rinner =    0.800   0.800   0.800


     atomic species   valence    mass     pseudopotential
     Si                4.00    28.08550     Si( 1.00)
     O                 6.00    15.99940     O ( 1.00)

     No symmetry found



   Cartesian axes

     site n.     atom                  positions (alat units)
         1        Si     tau(   1) = (   0.4697000   0.0000000   0.0000000  )
         2        Si     tau(   2) = (  -0.2348500   0.4066642   0.7334053  )
         3        Si     tau(   3) = (   0.2651500   0.4591314   0.3666476  )
         4        O      tau(   4) = (   0.2798500   0.2310808   0.1306863  )
         5        O      tau(   5) = (   0.6599000   0.1267525   0.4963439  )
         6        O      tau(   6) = (   0.5602500   0.5079623   0.8640916  )
         7        O      tau(   7) = (   0.1599000   0.7390431   0.2359614  )
         8        O      tau(   8) = (   0.0602500   0.3578333   0.6037090  )
         9        O      tau(   9) = (  -0.2201500   0.6347147   0.9693666  )

     number of k points=   112

     Number of k-points >= 100: set verbosity='high' to print them.

     Dense  grid:   135399 G-vectors     FFT dimensions: (  72,  72,  72)

     Smooth grid:    47759 G-vectors     FFT dimensions: (  45,  45,  54)

     Estimated max dynamical RAM per process >     117.33 MB

     Estimated total dynamical RAM >     469.32 MB

     Initial potential from superposition of free atoms

     starting charge      47.9985, renormalised to      48.0000
     Starting wfcs are   36 randomized atomic wfcs

     total cpu time spent up to now is        6.6 secs

     Self-consistent Calculation

     iteration #  1     ecut=    60.00 Ry     beta= 0.30
     Davidson diagonalization with overlap
     ethr =  1.00E-02,  avg # of iterations =  2.0

     total cpu time spent up to now is       19.3 secs

     total energy              =    -214.99538548 Ry
     estimated scf accuracy    <       2.72219693 Ry

     iteration #  2     ecut=    60.00 Ry     beta= 0.30
     Davidson diagonalization with overlap
     ethr =  5.67E-03,  avg # of iterations =  4.2

     total cpu time spent up to now is       31.3 secs

     total energy              =    -215.35351787 Ry
     estimated scf accuracy    <       0.32497059 Ry

     iteration #  3     ecut=    60.00 Ry     beta= 0.30
     Davidson diagonalization with overlap
     ethr =  6.77E-04,  avg # of iterations =  6.7

     total cpu time spent up to now is       45.2 secs

     total energy              =    -215.45886730 Ry
     estimated scf accuracy    <       0.10848132 Ry

     iteration #  4     ecut=    60.00 Ry     beta= 0.30
     Davidson diagonalization with overlap
     ethr =  2.26E-04,  avg # of iterations =  2.6

     total cpu time spent up to now is       54.8 secs

     total energy              =    -215.44378945 Ry
     estimated scf accuracy    <       0.04650016 Ry

     iteration #  5     ecut=    60.00 Ry     beta= 0.30
     Davidson diagonalization with overlap
     ethr =  9.69E-05,  avg # of iterations =  8.1

     total cpu time spent up to now is       69.6 secs

     total energy              =    -215.44538347 Ry
     estimated scf accuracy    <       0.07265970 Ry

     iteration #  6     ecut=    60.00 Ry     beta= 0.30
     Davidson diagonalization with overlap
     ethr =  9.69E-05,  avg # of iterations =  7.3

     total cpu time spent up to now is       81.6 secs

     total energy              =    -215.45675652 Ry
     estimated scf accuracy    <       0.00752648 Ry

     iteration #  7     ecut=    60.00 Ry     beta= 0.30
     Davidson diagonalization with overlap
     ethr =  1.57E-05,  avg # of iterations =  6.1

     total cpu time spent up to now is       92.9 secs

     total energy              =    -215.45792574 Ry
     estimated scf accuracy    <       0.00044378 Ry

     iteration #  8     ecut=    60.00 Ry     beta= 0.30
     Davidson diagonalization with overlap
     ethr =  9.25E-07,  avg # of iterations =  9.4

     total cpu time spent up to now is      107.8 secs

     total energy              =    -215.45804576 Ry
     estimated scf accuracy    <       0.00062701 Ry

     iteration #  9     ecut=    60.00 Ry     beta= 0.30
     Davidson diagonalization with overlap
     ethr =  9.25E-07,  avg # of iterations =  4.1

     total cpu time spent up to now is      118.0 secs

     total energy              =    -215.45797405 Ry
     estimated scf accuracy    <       0.00040305 Ry

     iteration # 10     ecut=    60.00 Ry     beta= 0.30
     Davidson diagonalization with overlap
     ethr =  8.40E-07,  avg # of iterations =  7.0

     total cpu time spent up to now is      129.5 secs

     total energy              =    -215.45803198 Ry
     estimated scf accuracy    <       0.00004102 Ry

     iteration # 11     ecut=    60.00 Ry     beta= 0.30
     Davidson diagonalization with overlap
     ethr =  8.55E-08,  avg # of iterations =  7.2

     total cpu time spent up to now is      143.8 secs

     total energy              =    -215.45804227 Ry
     estimated scf accuracy    <       0.00002279 Ry

     iteration # 12     ecut=    60.00 Ry     beta= 0.30
     Davidson diagonalization with overlap
     ethr =  4.75E-08,  avg # of iterations =  7.4

     total cpu time spent up to now is      157.1 secs

     total energy              =    -215.45804286 Ry
     estimated scf accuracy    <       0.00002508 Ry

     iteration # 13     ecut=    60.00 Ry     beta= 0.30
     Davidson diagonalization with overlap
     ethr =  4.75E-08,  avg # of iterations =  7.7

     total cpu time spent up to now is      168.2 secs

     total energy              =    -215.45804667 Ry
     estimated scf accuracy    <       0.00000095 Ry

     iteration # 14     ecut=    60.00 Ry     beta= 0.30
     Davidson diagonalization with overlap
     ethr =  1.98E-09,  avg # of iterations =  7.5

     total cpu time spent up to now is      183.7 secs

     total energy              =    -215.45804686 Ry
     estimated scf accuracy    <       0.00000079 Ry

     iteration # 15     ecut=    60.00 Ry     beta= 0.30
     Davidson diagonalization with overlap
     ethr =  1.65E-09,  avg # of iterations =  7.1

     total cpu time spent up to now is      197.7 secs

     total energy              =    -215.45804701 Ry
     estimated scf accuracy    <       0.00000020 Ry

     iteration # 16     ecut=    60.00 Ry     beta= 0.30
     Davidson diagonalization with overlap
     ethr =  4.06E-10,  avg # of iterations =  5.9

     total cpu time spent up to now is      209.2 secs

     total energy              =    -215.45804703 Ry
     estimated scf accuracy    <       0.00000003 Ry

     iteration # 17     ecut=    60.00 Ry     beta= 0.30
     Davidson diagonalization with overlap
     ethr =  6.12E-11,  avg # of iterations =  6.7

     total cpu time spent up to now is      224.4 secs

     End of self-consistent calculation

     Number of k-points >= 100: set verbosity='high' to print the bands.

     highest occupied level (ev):     6.1118

!    total energy              =    -215.45804700 Ry
     estimated scf accuracy    <          8.0E-09 Ry

     The total energy is the sum of the following terms:
     one-electron contribution =    -115.68641966 Ry
     hartree contribution      =      82.70400782 Ry
     xc contribution           =     -49.51993084 Ry
     ewald contribution        =    -132.95570432 Ry

     convergence has been achieved in  17 iterations

     Forces acting on atoms (cartesian axes, Ry/au):

     atom    1 type  1   force =     0.12190294    0.12898804   -0.01178734
     atom    2 type  1   force =     0.68065173   -0.64692142   -0.68112110
     atom    3 type  1   force =     0.05228263   -0.05508132    0.04511778
     atom    4 type  2   force =    -0.04906464   -0.00174703   -0.01410828
     atom    5 type  2   force =    -0.05867880    0.25695274    0.22128101
     atom    6 type  2   force =    -1.11017047    0.25221682    0.35251609
     atom    7 type  2   force =     0.02958993   -0.14418766   -0.11420054
     atom    8 type  2   force =     0.07529246    0.04545137    0.02855791
     atom    9 type  2   force =     0.25819422    0.16432846    0.17374447

     Total force =     1.758885     Total SCF correction =     0.000163


     Computing stress (Cartesian axis) and pressure

          total   stress  (Ry/bohr**3)                   (kbar)     P=      369.50
   0.00351911  -0.00012663  -0.00063055          517.68      -18.63      -92.76
  -0.00012663   0.00177525   0.00159552          -18.63      261.15      234.71
  -0.00063055   0.00159552   0.00224108          -92.76      234.71      329.67


     BFGS Geometry Optimization
     Energy error            =      1.9E+00 Ry
     Gradient error          =      1.1E+00 Ry/Bohr
     Cell gradient error     =      5.2E+02 kbar

     number of scf cycles    =   1
     number of bfgs steps    =   0

     enthalpy           new  =    -215.4580470049 Ry

     new trust radius        =       0.5000000000 bohr
     new conv_thr            =       0.0000000100 Ry

     new unit-cell volume =    823.91034 a.u.^3 (   122.09092 Ang^3 )
     density =      2.45159 g/cm^3

CELL_PARAMETERS (angstrom)
   5.094753512  -0.006525960  -0.032494950
  -2.553026903   4.336470644   0.087436279
  -0.035746164   0.090450279   5.532046924

ATOMIC_POSITIONS (crystal)
Si               0.4785739727        0.0067316879       -0.0004841636
Si               0.0138740193        0.4359381639        0.6387230318
Si               0.5312250622        0.5274253904        0.3351532075
O                0.4110374491        0.2668088250        0.1182205042
O                0.7371536099        0.1598099692        0.4602890911
O                0.8100188595        0.5998628091        0.7999795565
O                0.5842745409        0.8460750671        0.2098092262
O                0.2714880740        0.4156720372        0.5499730127
O                0.1623544127        0.7416760501        0.8883365337



     Writing config-only to output data dir ./tmp/quartz.save/ :
     XML data file
     NEW-OLD atomic charge density approx. for the potential
     New effective cutoffs (rho, wfc):  475.31   59.53

     negative rho (up, down):  2.737E-05 0.000E+00

     total cpu time spent up to now is      227.9 secs

     Self-consistent Calculation

     iteration #  1     ecut=    60.00 Ry     beta= 0.30
     Davidson diagonalization with overlap
     c_bands:  2 eigenvalues not converged
     c_bands:  2 eigenvalues not converged
     c_bands:  1 eigenvalues not converged
     c_bands:  1 eigenvalues not converged
     c_bands:  1 eigenvalues not converged
     c_bands:  1 eigenvalues not converged
     c_bands:  1 eigenvalues not converged
     c_bands:  1 eigenvalues not converged
     c_bands:  1 eigenvalues not converged
     c_bands:  1 eigenvalues not converged
     c_bands:  1 eigenvalues not converged
     c_bands:  1 eigenvalues not converged
     c_bands:  2 eigenvalues not converged
     c_bands:  2 eigenvalues not converged
     c_bands:  1 eigenvalues not converged
     c_bands:  2 eigenvalues not converged
     c_bands:  2 eigenvalues not converged
     c_bands:  1 eigenvalues not converged
     c_bands:  1 eigenvalues not converged
     c_bands:  1 eigenvalues not converged
     c_bands:  1 eigenvalues not converged
     c_bands:  1 eigenvalues not converged
     c_bands:  1 eigenvalues not converged
     c_bands:  2 eigenvalues not converged
     c_bands:  1 eigenvalues not converged
     c_bands:  1 eigenvalues not converged
     c_bands:  1 eigenvalues not converged
     c_bands:  1 eigenvalues not converged
     c_bands:  1 eigenvalues not converged
     c_bands:  1 eigenvalues not converged
     c_bands:  1 eigenvalues not converged
     c_bands:  1 eigenvalues not converged
     c_bands:  2 eigenvalues not converged
     c_bands:  1 eigenvalues not converged
     c_bands:  1 eigenvalues not converged
     c_bands:  1 eigenvalues not converged
     c_bands:  1 eigenvalues not converged
     c_bands:  1 eigenvalues not converged
     c_bands:  1 eigenvalues not converged
     c_bands:  1 eigenvalues not converged
     c_bands:  1 eigenvalues not converged
     c_bands:  1 eigenvalues not converged
     c_bands:  1 eigenvalues not converged
     c_bands:  2 eigenvalues not converged
     c_bands:  1 eigenvalues not converged
     c_bands:  1 eigenvalues not converged
     c_bands:  2 eigenvalues not converged
     c_bands:  1 eigenvalues not converged
     c_bands:  2 eigenvalues not converged
     c_bands:  2 eigenvalues not converged
     c_bands:  2 eigenvalues not converged
     c_bands:  2 eigenvalues not converged
     c_bands:  1 eigenvalues not converged
     c_bands:  1 eigenvalues not converged
     c_bands:  2 eigenvalues not converged
     c_bands:  1 eigenvalues not converged
     c_bands:  2 eigenvalues not converged
     c_bands:  2 eigenvalues not converged
     c_bands:  2 eigenvalues not converged
     c_bands:  1 eigenvalues not converged
     c_bands:  1 eigenvalues not converged
     c_bands:  1 eigenvalues not converged
     c_bands:  1 eigenvalues not converged
     c_bands:  1 eigenvalues not converged
     c_bands:  1 eigenvalues not converged
     c_bands:  1 eigenvalues not converged
     c_bands:  1 eigenvalues not converged
     c_bands:  1 eigenvalues not converged
     c_bands:  1 eigenvalues not converged
     c_bands:  1 eigenvalues not converged
     c_bands:  2 eigenvalues not converged
     c_bands:  1 eigenvalues not converged
     c_bands:  2 eigenvalues not converged
     c_bands:  3 eigenvalues not converged
     c_bands:  1 eigenvalues not converged
     c_bands:  1 eigenvalues not converged
     c_bands:  2 eigenvalues not converged
     c_bands:  1 eigenvalues not converged
     c_bands:  1 eigenvalues not converged
     c_bands:  1 eigenvalues not converged
     c_bands:  2 eigenvalues not converged
     c_bands:  1 eigenvalues not converged
     c_bands:  1 eigenvalues not converged
     c_bands:  1 eigenvalues not converged
     c_bands:  2 eigenvalues not converged
     c_bands:  1 eigenvalues not converged
     c_bands:  1 eigenvalues not converged
     c_bands:  1 eigenvalues not converged
     c_bands:  1 eigenvalues not converged
     c_bands:  2 eigenvalues not converged
     c_bands:  1 eigenvalues not converged
     c_bands:  2 eigenvalues not converged
     c_bands:  2 eigenvalues not converged
     c_bands:  2 eigenvalues not converged
     c_bands:  1 eigenvalues not converged
     c_bands:  1 eigenvalues not converged
     c_bands:  1 eigenvalues not converged
     c_bands:  1 eigenvalues not converged
     c_bands:  1 eigenvalues not converged
     c_bands:  1 eigenvalues not converged
     c_bands:  2 eigenvalues not converged
     c_bands:  2 eigenvalues not converged
     ethr =  1.00E-06,  avg # of iterations = 19.9

     negative rho (up, down):  5.841E-06 0.000E+00

     total cpu time spent up to now is      279.2 secs

     total energy              =    -215.93027652 Ry
     estimated scf accuracy    <       0.20386961 Ry

     iteration #  2     ecut=    60.00 Ry     beta= 0.30
     Davidson diagonalization with overlap
     ethr =  4.25E-04,  avg # of iterations =  2.7

     total cpu time spent up to now is      288.9 secs

     total energy              =    -215.92899412 Ry
     estimated scf accuracy    <       0.05615665 Ry

     iteration #  3     ecut=    60.00 Ry     beta= 0.30
     Davidson diagonalization with overlap
     ethr =  1.17E-04,  avg # of iterations =  2.5

     total cpu time spent up to now is      299.0 secs

     total energy              =    -215.92969278 Ry
     estimated scf accuracy    <       0.01392720 Ry

     iteration #  4     ecut=    60.00 Ry     beta= 0.30
     Davidson diagonalization with overlap
     ethr =  2.90E-05,  avg # of iterations =  8.5

     total cpu time spent up to now is      312.8 secs

     total energy              =    -215.93646018 Ry
     estimated scf accuracy    <       0.02511299 Ry

     iteration #  5     ecut=    60.00 Ry     beta= 0.30
     Davidson diagonalization with overlap
     ethr =  2.90E-05,  avg # of iterations =  1.0

     total cpu time spent up to now is      321.2 secs

     total energy              =    -215.93446435 Ry
     estimated scf accuracy    <       0.02840190 Ry

     iteration #  6     ecut=    60.00 Ry     beta= 0.30
     Davidson diagonalization with overlap
     ethr =  2.90E-05,  avg # of iterations =  2.5

     total cpu time spent up to now is      330.3 secs

     total energy              =    -215.92814153 Ry
     estimated scf accuracy    <       0.02250518 Ry

     iteration #  7     ecut=    60.00 Ry     beta= 0.30
     Davidson diagonalization with overlap
     ethr =  2.90E-05,  avg # of iterations =  8.7

     total cpu time spent up to now is      343.8 secs

     total energy              =    -215.93473179 Ry
     estimated scf accuracy    <       0.04669148 Ry

     iteration #  8     ecut=    60.00 Ry     beta= 0.30
     Davidson diagonalization with overlap
     ethr =  2.90E-05,  avg # of iterations =  1.6

     total cpu time spent up to now is      352.5 secs

     total energy              =    -215.92570038 Ry
     estimated scf accuracy    <       0.03617907 Ry

     iteration #  9     ecut=    60.00 Ry     beta= 0.30
     Davidson diagonalization with overlap
     ethr =  2.90E-05,  avg # of iterations =  8.6

     total cpu time spent up to now is      365.6 secs

     total energy              =    -215.93415447 Ry
     estimated scf accuracy    <       0.01826066 Ry

     iteration # 10     ecut=    60.00 Ry     beta= 0.30
     Davidson diagonalization with overlap
     ethr =  2.90E-05,  avg # of iterations =  1.0

     total cpu time spent up to now is      374.0 secs

     total energy              =    -215.92994234 Ry
     estimated scf accuracy    <       0.01639578 Ry

     iteration # 11     ecut=    60.00 Ry     beta= 0.30
     Davidson diagonalization with overlap
     ethr =  2.90E-05,  avg # of iterations =  7.8

     total cpu time spent up to now is      385.1 secs

     total energy              =    -215.93379471 Ry
     estimated scf accuracy    <       0.00677826 Ry

     iteration # 12     ecut=    60.00 Ry     beta= 0.30
     Davidson diagonalization with overlap
     ethr =  1.41E-05,  avg # of iterations =  1.0

     total cpu time spent up to now is      393.5 secs

     total energy              =    -215.93347099 Ry
     estimated scf accuracy    <       0.00716732 Ry

     iteration # 13     ecut=    60.00 Ry     beta= 0.30
     Davidson diagonalization with overlap
     ethr =  1.41E-05,  avg # of iterations =  1.0

     total cpu time spent up to now is      401.9 secs

     total energy              =    -215.93248837 Ry
     estimated scf accuracy    <       0.00615719 Ry

     iteration # 14     ecut=    60.00 Ry     beta= 0.30
     Davidson diagonalization with overlap
     ethr =  1.28E-05,  avg # of iterations =  6.8

     total cpu time spent up to now is      412.1 secs

     total energy              =    -215.93314913 Ry
     estimated scf accuracy    <       0.00003282 Ry

     iteration # 15     ecut=    60.00 Ry     beta= 0.30
     Davidson diagonalization with overlap
     ethr =  6.84E-08,  avg # of iterations = 10.1

     total cpu time spent up to now is      428.5 secs

     total energy              =    -215.93334606 Ry
     estimated scf accuracy    <       0.00058209 Ry

     iteration # 16     ecut=    60.00 Ry     beta= 0.30
     Davidson diagonalization with overlap
     ethr =  6.84E-08,  avg # of iterations =  9.0

     total cpu time spent up to now is      443.8 secs

     total energy              =    -215.93324333 Ry
     estimated scf accuracy    <       0.00230458 Ry

     iteration # 17     ecut=    60.00 Ry     beta= 0.30
     Davidson diagonalization with overlap
     ethr =  6.84E-08,  avg # of iterations =  8.0

     total cpu time spent up to now is      457.2 secs

     total energy              =    -215.93314998 Ry
     estimated scf accuracy    <       0.00091655 Ry

     iteration # 18     ecut=    60.00 Ry     beta= 0.30
     Davidson diagonalization with overlap
     ethr =  6.84E-08,  avg # of iterations =  8.9

     total cpu time spent up to now is      472.6 secs

     total energy              =    -215.93317867 Ry
     estimated scf accuracy    <       0.00005683 Ry

     iteration # 19     ecut=    60.00 Ry     beta= 0.30
     Davidson diagonalization with overlap
     ethr =  6.84E-08,  avg # of iterations =  7.8

     total cpu time spent up to now is      485.6 secs

     total energy              =    -215.93319653 Ry
     estimated scf accuracy    <       0.00002742 Ry

     iteration # 20     ecut=    60.00 Ry     beta= 0.30
     Davidson diagonalization with overlap
     ethr =  5.71E-08,  avg # of iterations =  5.4

     total cpu time spent up to now is      495.5 secs

     total energy              =    -215.93318779 Ry
     estimated scf accuracy    <       0.00008064 Ry

     iteration # 21     ecut=    60.00 Ry     beta= 0.30
     Davidson diagonalization with overlap
     ethr =  5.71E-08,  avg # of iterations =  5.5

     total cpu time spent up to now is      507.5 secs

     total energy              =    -215.93318620 Ry
     estimated scf accuracy    <       0.00002162 Ry

     iteration # 22     ecut=    60.00 Ry     beta= 0.30
     Davidson diagonalization with overlap
     ethr =  4.50E-08,  avg # of iterations =  6.7

     total cpu time spent up to now is      519.2 secs

     total energy              =    -215.93318896 Ry
     estimated scf accuracy    <       0.00000123 Ry

     iteration # 23     ecut=    60.00 Ry     beta= 0.30
     Davidson diagonalization with overlap
     ethr =  2.57E-09,  avg # of iterations =  8.4

     total cpu time spent up to now is      532.9 secs

     total energy              =    -215.93318948 Ry
     estimated scf accuracy    <       0.00000162 Ry

     iteration # 24     ecut=    60.00 Ry     beta= 0.30
     Davidson diagonalization with overlap
     ethr =  2.57E-09,  avg # of iterations =  1.0

     total cpu time spent up to now is      542.3 secs

     total energy              =    -215.93318941 Ry
     estimated scf accuracy    <       0.00000127 Ry

     iteration # 25     ecut=    60.00 Ry     beta= 0.30
     Davidson diagonalization with overlap
     ethr =  2.57E-09,  avg # of iterations =  1.1

     total cpu time spent up to now is      551.2 secs

     total energy              =    -215.93318932 Ry
     estimated scf accuracy    <       0.00000091 Ry

     iteration # 26     ecut=    60.00 Ry     beta= 0.30
     Davidson diagonalization with overlap
     ethr =  1.89E-09,  avg # of iterations =  6.3

     total cpu time spent up to now is      561.9 secs

     total energy              =    -215.93318941 Ry
     estimated scf accuracy    <       0.00000005 Ry

     iteration # 27     ecut=    60.00 Ry     beta= 0.30
     Davidson diagonalization with overlap
     ethr =  1.07E-10,  avg # of iterations =  5.6

     total cpu time spent up to now is      574.4 secs

     total energy              =    -215.93318943 Ry
     estimated scf accuracy    <       0.00000004 Ry

     iteration # 28     ecut=    60.00 Ry     beta= 0.30
     Davidson diagonalization with overlap
     ethr =  8.42E-11,  avg # of iterations =  1.1

     total cpu time spent up to now is      583.7 secs

     total energy              =    -215.93318944 Ry
     estimated scf accuracy    <       0.00000004 Ry

     iteration # 29     ecut=    60.00 Ry     beta= 0.30
     Davidson diagonalization with overlap
     ethr =  8.42E-11,  avg # of iterations =  4.4

     total cpu time spent up to now is      593.9 secs

     total energy              =    -215.93318944 Ry
     estimated scf accuracy    <       0.00000008 Ry

     iteration # 30     ecut=    60.00 Ry     beta= 0.30
     Davidson diagonalization with overlap
     ethr =  8.42E-11,  avg # of iterations = 11.0

     total cpu time spent up to now is      609.2 secs

     total energy              =    -215.93318953 Ry
     estimated scf accuracy    <       0.00000056 Ry

     iteration # 31     ecut=    60.00 Ry     beta= 0.30
     Davidson diagonalization with overlap
     ethr =  8.42E-11,  avg # of iterations =  7.4

     total cpu time spent up to now is      622.6 secs

     total energy              =    -215.93318946 Ry
     estimated scf accuracy    <       0.00000137 Ry

     iteration # 32     ecut=    60.00 Ry     beta= 0.30
     Davidson diagonalization with overlap
     ethr =  8.42E-11,  avg # of iterations =  7.1

     total cpu time spent up to now is      635.3 secs

     total energy              =    -215.93318936 Ry
     estimated scf accuracy    <       0.00000059 Ry

     iteration # 33     ecut=    60.00 Ry     beta= 0.30
     Davidson diagonalization with overlap
     ethr =  8.42E-11,  avg # of iterations =  9.5

     total cpu time spent up to now is      654.2 secs

     total energy              =    -215.93318944 Ry
     estimated scf accuracy    <       0.00000018 Ry

     iteration # 34     ecut=    60.00 Ry     beta= 0.30
     Davidson diagonalization with overlap
     ethr =  8.42E-11,  avg # of iterations =  1.0

     total cpu time spent up to now is      664.5 secs

     total energy              =    -215.93318946 Ry
     estimated scf accuracy    <       0.00000013 Ry

     iteration # 35     ecut=    60.00 Ry     beta= 0.30
     Davidson diagonalization with overlap
     ethr =  8.42E-11,  avg # of iterations =  7.9

     total cpu time spent up to now is      679.2 secs

     total energy              =    -215.93318938 Ry
     estimated scf accuracy    <       0.00000044 Ry

     iteration # 36     ecut=    60.00 Ry     beta= 0.30
     Davidson diagonalization with overlap
     ethr =  8.42E-11,  avg # of iterations =  9.7

     total cpu time spent up to now is      697.0 secs

     total energy              =    -215.93318943 Ry
     estimated scf accuracy    <       0.00000001 Ry

     iteration # 37     ecut=    60.00 Ry     beta= 0.30
     Davidson diagonalization with overlap
     ethr =  2.32E-11,  avg # of iterations =  4.7

     total cpu time spent up to now is      706.9 secs

     End of self-consistent calculation

     Number of k-points >= 100: set verbosity='high' to print the bands.

     highest occupied level (ev):     4.7813

!    total energy              =    -215.93318942 Ry
     estimated scf accuracy    <          6.7E-09 Ry

     The total energy is the sum of the following terms:
     one-electron contribution =    -110.51333428 Ry
     hartree contribution      =      79.56495247 Ry
     xc contribution           =     -48.74662336 Ry
     ewald contribution        =    -136.23818425 Ry

     convergence has been achieved in  37 iterations

     Forces acting on atoms (cartesian axes, Ry/au):

     atom    1 type  1   force =     0.02177971    0.09106229    0.01325786
     atom    2 type  1   force =    -0.40643863   -0.03825508    0.11088128
     atom    3 type  1   force =     0.04245510   -0.07307643   -0.02196162
     atom    4 type  2   force =    -0.01226442    0.00040374    0.03729869
     atom    5 type  2   force =    -0.03179975    0.19376693    0.14812257
     atom    6 type  2   force =    -0.04431583   -0.08537356   -0.11730106
     atom    7 type  2   force =     0.03871634   -0.10289772   -0.05309246
     atom    8 type  2   force =     0.28220954    0.02777833   -0.07311906
     atom    9 type  2   force =     0.10965795   -0.01340850   -0.04408620

     Total force =     0.628795     Total SCF correction =     0.000116


     Computing stress (Cartesian axis) and pressure

          total   stress  (Ry/bohr**3)                   (kbar)     P=       46.97
   0.00106878   0.00064788   0.00011778          157.22       95.31       17.33
   0.00064788  -0.00017449   0.00005723           95.31      -25.67        8.42
   0.00011778   0.00005723   0.00006353           17.33        8.42        9.35

     Energy error            =      5.2E-01 Ry
     Gradient error          =      4.1E-01 Ry/Bohr
     Cell gradient error     =      1.6E+02 kbar

     number of scf cycles    =   4
     number of bfgs steps    =   2

     enthalpy           old  =    -216.4514150088 Ry
     enthalpy           new  =    -215.9331894209 Ry

     CASE: enthalpy          _new > enthalpy          _old

     new trust radius        =       0.3255508306 bohr
     new conv_thr            =       0.0000000100 Ry

     new unit-cell volume =    744.64192 a.u.^3 (   110.34455 Ang^3 )
     density =      2.71257 g/cm^3

CELL_PARAMETERS (angstrom)
   5.008430007   0.523240019  -0.013263002
  -2.023713990   3.805159460   0.426192996
  -0.005714239   0.527302526   5.540529318

ATOMIC_POSITIONS (crystal)
Si               0.4729769257        0.0098472921       -0.0117056075
Si               0.0216283375        0.4977754532        0.6779846128
Si               0.5179017389        0.4568244994        0.3582046210
O                0.3916992955        0.2434028028        0.1365476863
O                0.7362078628        0.2536286879        0.4674141134
O                0.7375594392        0.5378377868        0.7701341814
O                0.6213937471        0.8340772388        0.1835582827
O                0.2543239481        0.4159218704        0.5678151972
O                0.2463087050        0.7506843687        0.8500469127



     Writing config-only to output data dir ./tmp/quartz.save/ :
     XML data file
     NEW-OLD atomic charge density approx. for the potential
     New effective cutoffs (rho, wfc):  681.55   85.51

     negative rho (up, down):  2.070E-03 0.000E+00

     total cpu time spent up to now is      710.7 secs

     Self-consistent Calculation

     iteration #  1     ecut=    60.00 Ry     beta= 0.30
     Davidson diagonalization with overlap
     c_bands:  1 eigenvalues not converged
     c_bands:  1 eigenvalues not converged
     c_bands:  1 eigenvalues not converged
     c_bands:  1 eigenvalues not converged
     c_bands:  1 eigenvalues not converged
     c_bands:  1 eigenvalues not converged
     c_bands:  1 eigenvalues not converged
     c_bands:  1 eigenvalues not converged
     c_bands:  1 eigenvalues not converged
     c_bands:  1 eigenvalues not converged
     c_bands:  1 eigenvalues not converged
     ethr =  1.00E-06,  avg # of iterations = 18.4

     negative rho (up, down):  6.918E-04 0.000E+00

     total cpu time spent up to now is      771.0 secs

     total energy              =    -216.47378434 Ry
     estimated scf accuracy    <       0.43972956 Ry

     iteration #  2     ecut=    60.00 Ry     beta= 0.30
     Davidson diagonalization with overlap
     ethr =  9.16E-04,  avg # of iterations =  2.0

     negative rho (up, down):  1.359E-04 0.000E+00

     total cpu time spent up to now is      780.9 secs

     total energy              =    -216.48475477 Ry
     estimated scf accuracy    <       0.09066576 Ry

     iteration #  3     ecut=    60.00 Ry     beta= 0.30
     Davidson diagonalization with overlap
     ethr =  1.89E-04,  avg # of iterations =  4.0

     negative rho (up, down):  2.708E-05 0.000E+00

     total cpu time spent up to now is      793.7 secs

     total energy              =    -216.49002460 Ry
     estimated scf accuracy    <       0.03797673 Ry

     iteration #  4     ecut=    60.00 Ry     beta= 0.30
     Davidson diagonalization with overlap
     ethr =  7.91E-05,  avg # of iterations =  5.0

     negative rho (up, down):  1.099E-06 0.000E+00

     total cpu time spent up to now is      809.8 secs

     total energy              =    -216.50025517 Ry
     estimated scf accuracy    <       0.06077654 Ry

     iteration #  5     ecut=    60.00 Ry     beta= 0.30
     Davidson diagonalization with overlap
     ethr =  7.91E-05,  avg # of iterations =  2.0

     total cpu time spent up to now is      821.2 secs

     total energy              =    -216.49543304 Ry
     estimated scf accuracy    <       0.01809014 Ry

     iteration #  6     ecut=    60.00 Ry     beta= 0.30
     Davidson diagonalization with overlap
     ethr =  3.77E-05,  avg # of iterations =  4.9

     total cpu time spent up to now is      838.9 secs

     total energy              =    -216.50087467 Ry
     estimated scf accuracy    <       0.00638515 Ry

     iteration #  7     ecut=    60.00 Ry     beta= 0.30
     Davidson diagonalization with overlap
     ethr =  1.33E-05,  avg # of iterations =  3.9

     total cpu time spent up to now is      852.9 secs

     total energy              =    -216.50231141 Ry
     estimated scf accuracy    <       0.00027365 Ry

     iteration #  8     ecut=    60.00 Ry     beta= 0.30
     Davidson diagonalization with overlap
     ethr =  5.70E-07,  avg # of iterations =  3.1

     total cpu time spent up to now is      864.4 secs

     total energy              =    -216.50231523 Ry
     estimated scf accuracy    <       0.00019669 Ry

     iteration #  9     ecut=    60.00 Ry     beta= 0.30
     Davidson diagonalization with overlap
     ethr =  4.10E-07,  avg # of iterations =  2.2

     total cpu time spent up to now is      873.4 secs

     total energy              =    -216.50230729 Ry
     estimated scf accuracy    <       0.00005968 Ry

     iteration # 10     ecut=    60.00 Ry     beta= 0.30
     Davidson diagonalization with overlap
     ethr =  1.24E-07,  avg # of iterations =  4.5

     total cpu time spent up to now is      885.6 secs

     total energy              =    -216.50232364 Ry
     estimated scf accuracy    <       0.00000441 Ry

     iteration # 11     ecut=    60.00 Ry     beta= 0.30
     Davidson diagonalization with overlap
     ethr =  9.19E-09,  avg # of iterations =  4.3

     total cpu time spent up to now is      898.1 secs

     total energy              =    -216.50232457 Ry
     estimated scf accuracy    <       0.00000065 Ry

     iteration # 12     ecut=    60.00 Ry     beta= 0.30
     Davidson diagonalization with overlap
     ethr =  1.35E-09,  avg # of iterations =  3.5

     total cpu time spent up to now is      910.0 secs

     total energy              =    -216.50232477 Ry
     estimated scf accuracy    <       0.00000011 Ry

     iteration # 13     ecut=    60.00 Ry     beta= 0.30
     Davidson diagonalization with overlap
     ethr =  2.25E-10,  avg # of iterations =  3.6

     total cpu time spent up to now is      922.7 secs

     total energy              =    -216.50232475 Ry
     estimated scf accuracy    <       0.00000017 Ry

     iteration # 14     ecut=    60.00 Ry     beta= 0.30
     Davidson diagonalization with overlap
     ethr =  2.25E-10,  avg # of iterations =  4.5

     total cpu time spent up to now is      937.9 secs

     End of self-consistent calculation

     Number of k-points >= 100: set verbosity='high' to print the bands.

     highest occupied level (ev):     4.6718

!    total energy              =    -216.50232479 Ry
     estimated scf accuracy    <          8.7E-09 Ry

     The total energy is the sum of the following terms:
     one-electron contribution =    -100.66136216 Ry
     hartree contribution      =      76.35915602 Ry
     xc contribution           =     -49.38536276 Ry
     ewald contribution        =    -142.81475590 Ry

     convergence has been achieved in  14 iterations

     Forces acting on atoms (cartesian axes, Ry/au):

     atom    1 type  1   force =    -0.03558733    0.06033411   -0.05870864
     atom    2 type  1   force =    -0.16650044    0.01106450    0.01453712
     atom    3 type  1   force =     0.06879212   -0.07251372    0.02347104
     atom    4 type  2   force =    -0.09179533   -0.01730170    0.03908498
     atom    5 type  2   force =    -0.00975911    0.07252079   -0.02578264
     atom    6 type  2   force =    -0.01709426   -0.03851464    0.10488338
     atom    7 type  2   force =     0.08044491   -0.01684269    0.03413426
     atom    8 type  2   force =     0.18119280   -0.04606472   -0.13884608
     atom    9 type  2   force =    -0.00969336    0.04731809    0.00722657

     Total force =     0.374882     Total SCF correction =     0.000137


     Computing stress (Cartesian axis) and pressure

          total   stress  (Ry/bohr**3)                   (kbar)     P=       22.01
   0.00060463  -0.00031641  -0.00053689           88.94      -46.55      -78.98
  -0.00031641  -0.00032260   0.00043190          -46.55      -47.46       63.53
  -0.00053689   0.00043190   0.00016685          -78.98       63.53       24.54

     Energy error            =      5.1E-02 Ry
     Gradient error          =      1.8E-01 Ry/Bohr
     Cell gradient error     =      8.9E+01 kbar

     number of scf cycles    =   5
     number of bfgs steps    =   2

     enthalpy           old  =    -216.4514150088 Ry
     enthalpy           new  =    -216.5023247920 Ry

     CASE: enthalpy          _new < enthalpy          _old

     new trust radius        =       0.2046137881 bohr
     new conv_thr            =       0.0000000100 Ry

     new unit-cell volume =    750.13705 a.u.^3 (   111.15884 Ang^3 )
     density =      2.69270 g/cm^3

CELL_PARAMETERS (angstrom)
   5.107904946   0.546691839  -0.073415953
  -2.062065653   3.738356474   0.563709560
  -0.053743937   0.657470876   5.587035031

ATOMIC_POSITIONS (crystal)
Si               0.4734317366        0.0177726939       -0.0191198067
Si               0.0061411050        0.5035539812        0.6831125787
Si               0.5146292734        0.4398834035        0.3612538775
O                0.3758497156        0.2367910820        0.1436634075
O                0.7444646787        0.2738085357        0.4668844221
O                0.7217634027        0.5280742523        0.7795821198
O                0.6356919786        0.8316882317        0.1826964698
O                0.2678748037        0.4105399911        0.5553579623
O                0.2601533057        0.7578878286        0.8465689689



     Writing config-only to output data dir ./tmp/quartz.save/ :
     XML data file
     NEW-OLD atomic charge density approx. for the potential
     New effective cutoffs (rho, wfc):  722.77   90.91

     negative rho (up, down):  1.701E-05 0.000E+00

     total cpu time spent up to now is      941.4 secs

     Self-consistent Calculation

     iteration #  1     ecut=    60.00 Ry     beta= 0.30
     Davidson diagonalization with overlap
     ethr =  1.00E-06,  avg # of iterations = 13.3

     negative rho (up, down):  2.724E-06 0.000E+00

     total cpu time spent up to now is      983.7 secs

     total energy              =    -216.57629951 Ry
     estimated scf accuracy    <       0.06953837 Ry

     iteration #  2     ecut=    60.00 Ry     beta= 0.30
     Davidson diagonalization with overlap
     ethr =  1.45E-04,  avg # of iterations =  2.0

     total cpu time spent up to now is      992.9 secs

     total energy              =    -216.57289766 Ry
     estimated scf accuracy    <       0.01614386 Ry

     iteration #  3     ecut=    60.00 Ry     beta= 0.30
     Davidson diagonalization with overlap
     ethr =  3.36E-05,  avg # of iterations =  2.0

     total cpu time spent up to now is     1004.2 secs

     total energy              =    -216.57570368 Ry
     estimated scf accuracy    <       0.00169039 Ry

     iteration #  4     ecut=    60.00 Ry     beta= 0.30
     Davidson diagonalization with overlap
     ethr =  3.52E-06,  avg # of iterations =  4.7

     total cpu time spent up to now is     1016.4 secs

     total energy              =    -216.57585404 Ry
     estimated scf accuracy    <       0.00051538 Ry

     iteration #  5     ecut=    60.00 Ry     beta= 0.30
     Davidson diagonalization with overlap
     ethr =  1.07E-06,  avg # of iterations =  3.4

     total cpu time spent up to now is     1028.2 secs

     total energy              =    -216.57596412 Ry
     estimated scf accuracy    <       0.00014286 Ry

     iteration #  6     ecut=    60.00 Ry     beta= 0.30
     Davidson diagonalization with overlap
     ethr =  2.98E-07,  avg # of iterations =  2.5

     total cpu time spent up to now is     1039.3 secs

     total energy              =    -216.57597953 Ry
     estimated scf accuracy    <       0.00002135 Ry

     iteration #  7     ecut=    60.00 Ry     beta= 0.30
     Davidson diagonalization with overlap
     ethr =  4.45E-08,  avg # of iterations =  5.4

     total cpu time spent up to now is     1054.7 secs

     total energy              =    -216.57597673 Ry
     estimated scf accuracy    <       0.00003161 Ry

     iteration #  8     ecut=    60.00 Ry     beta= 0.30
     Davidson diagonalization with overlap
     ethr =  4.45E-08,  avg # of iterations =  5.7

     total cpu time spent up to now is     1069.9 secs

     total energy              =    -216.57598834 Ry
     estimated scf accuracy    <       0.00001602 Ry

     iteration #  9     ecut=    60.00 Ry     beta= 0.30
     Davidson diagonalization with overlap
     ethr =  3.34E-08,  avg # of iterations =  2.0

     total cpu time spent up to now is     1078.8 secs

     total energy              =    -216.57598715 Ry
     estimated scf accuracy    <       0.00000630 Ry

     iteration # 10     ecut=    60.00 Ry     beta= 0.30
     Davidson diagonalization with overlap
     ethr =  1.31E-08,  avg # of iterations =  4.6

     total cpu time spent up to now is     1090.8 secs

     total energy              =    -216.57598882 Ry
     estimated scf accuracy    <       0.00000029 Ry

     iteration # 11     ecut=    60.00 Ry     beta= 0.30
     Davidson diagonalization with overlap
     ethr =  6.02E-10,  avg # of iterations =  3.1

     total cpu time spent up to now is     1102.4 secs

     total energy              =    -216.57598895 Ry
     estimated scf accuracy    <       0.00000011 Ry

     iteration # 12     ecut=    60.00 Ry     beta= 0.30
     Davidson diagonalization with overlap
     ethr =  2.27E-10,  avg # of iterations =  3.4

     total cpu time spent up to now is     1114.3 secs

     End of self-consistent calculation

     Number of k-points >= 100: set verbosity='high' to print the bands.

     highest occupied level (ev):     3.9343

!    total energy              =    -216.57598898 Ry
     estimated scf accuracy    <          9.8E-09 Ry

     The total energy is the sum of the following terms:
     one-electron contribution =     -97.57420530 Ry
     hartree contribution      =      74.71371869 Ry
     xc contribution           =     -49.14884973 Ry
     ewald contribution        =    -144.56665264 Ry

     convergence has been achieved in  12 iterations

     Forces acting on atoms (cartesian axes, Ry/au):

     atom    1 type  1   force =    -0.01569286    0.12279295    0.07340056
     atom    2 type  1   force =     0.07796987   -0.00540800   -0.09916032
     atom    3 type  1   force =     0.01992726   -0.03746214   -0.03703383
     atom    4 type  2   force =    -0.01950170   -0.08075939   -0.00141607
     atom    5 type  2   force =     0.04483882    0.05654297    0.01661556
     atom    6 type  2   force =     0.03303315   -0.06088821    0.10125734
     atom    7 type  2   force =     0.00726923    0.04738773   -0.03920546
     atom    8 type  2   force =    -0.09208477   -0.00856551    0.04169294
     atom    9 type  2   force =    -0.05575901   -0.03364040   -0.05615071

     Total force =     0.297969     Total SCF correction =     0.000288


     Computing stress (Cartesian axis) and pressure

          total   stress  (Ry/bohr**3)                   (kbar)     P=      -74.37
  -0.00053778  -0.00008825  -0.00022205          -79.11      -12.98      -32.66
  -0.00008825  -0.00059762  -0.00008465          -12.98      -87.91      -12.45
  -0.00022205  -0.00008465  -0.00038131          -32.66      -12.45      -56.09

     Energy error            =      7.4E-02 Ry
     Gradient error          =      1.2E-01 Ry/Bohr
     Cell gradient error     =      8.8E+01 kbar

     number of scf cycles    =   6
     number of bfgs steps    =   3

     enthalpy           old  =    -216.5023247920 Ry
     enthalpy           new  =    -216.5759889764 Ry

     CASE: enthalpy          _new < enthalpy          _old

     new trust radius        =       0.1756804788 bohr
     new conv_thr            =       0.0000000100 Ry

     new unit-cell volume =    722.92813 a.u.^3 (   107.12690 Ang^3 )
     density =      2.79404 g/cm^3

CELL_PARAMETERS (angstrom)
   5.096089749   0.565963117  -0.126691350
  -2.042771140   3.632928056   0.648769407
  -0.103365712   0.729671139   5.563639546

ATOMIC_POSITIONS (crystal)
Si               0.4801411784        0.0360500745       -0.0148777827
Si               0.0057789742        0.5075890093        0.6777236294
Si               0.5118963311        0.4256084058        0.3591503300
O                0.3598357637        0.2238301862        0.1467255305
O                0.7576641631        0.2924666094        0.4686489122
O                0.7137223268        0.5169174359        0.7925103147
O                0.6475546196        0.8351499189        0.1786975058
O                0.2637631099        0.4060847464        0.5531327598
O                0.2596435333        0.7563036133        0.8382888004



     Writing config-only to output data dir ./tmp/quartz.save/ :
     XML data file
     NEW-OLD atomic charge density approx. for the potential
     New effective cutoffs (rho, wfc):  781.90   98.35

     negative rho (up, down):  1.455E-06 0.000E+00

     total cpu time spent up to now is     1117.5 secs

     Self-consistent Calculation

     iteration #  1     ecut=    60.00 Ry     beta= 0.30
     Davidson diagonalization with overlap
     ethr =  1.00E-06,  avg # of iterations = 12.0

     total cpu time spent up to now is     1156.4 secs

     total energy              =    -216.65104756 Ry
     estimated scf accuracy    <       0.02075170 Ry

     iteration #  2     ecut=    60.00 Ry     beta= 0.30
     Davidson diagonalization with overlap
     ethr =  4.32E-05,  avg # of iterations =  1.0

     total cpu time spent up to now is     1165.0 secs

     total energy              =    -216.64884127 Ry
     estimated scf accuracy    <       0.00648401 Ry

     iteration #  3     ecut=    60.00 Ry     beta= 0.30
     Davidson diagonalization with overlap
     ethr =  1.35E-05,  avg # of iterations =  2.0

     total cpu time spent up to now is     1176.4 secs

     total energy              =    -216.64986611 Ry
     estimated scf accuracy    <       0.00050569 Ry

     iteration #  4     ecut=    60.00 Ry     beta= 0.30
     Davidson diagonalization with overlap
     ethr =  1.05E-06,  avg # of iterations =  2.0

     total cpu time spent up to now is     1186.6 secs

     total energy              =    -216.64989915 Ry
     estimated scf accuracy    <       0.00012707 Ry

     iteration #  5     ecut=    60.00 Ry     beta= 0.30
     Davidson diagonalization with overlap
     ethr =  2.65E-07,  avg # of iterations =  2.3

     total cpu time spent up to now is     1198.1 secs

     total energy              =    -216.64992569 Ry
     estimated scf accuracy    <       0.00001835 Ry

     iteration #  6     ecut=    60.00 Ry     beta= 0.30
     Davidson diagonalization with overlap
     ethr =  3.82E-08,  avg # of iterations =  3.3

     total cpu time spent up to now is     1209.8 secs

     total energy              =    -216.64993106 Ry
     estimated scf accuracy    <       0.00000599 Ry

     iteration #  7     ecut=    60.00 Ry     beta= 0.30
     Davidson diagonalization with overlap
     ethr =  1.25E-08,  avg # of iterations =  2.0

     total cpu time spent up to now is     1220.7 secs

     total energy              =    -216.64993254 Ry
     estimated scf accuracy    <       0.00000069 Ry

     iteration #  8     ecut=    60.00 Ry     beta= 0.30
     Davidson diagonalization with overlap
     ethr =  1.45E-09,  avg # of iterations =  3.2

     total cpu time spent up to now is     1233.7 secs

     total energy              =    -216.64993327 Ry
     estimated scf accuracy    <       0.00000033 Ry

     iteration #  9     ecut=    60.00 Ry     beta= 0.30
     Davidson diagonalization with overlap
     ethr =  6.87E-10,  avg # of iterations =  2.0

     total cpu time spent up to now is     1244.9 secs

     total energy              =    -216.64993358 Ry
     estimated scf accuracy    <       0.00000002 Ry

     iteration # 10     ecut=    60.00 Ry     beta= 0.30
     Davidson diagonalization with overlap
     ethr =  5.02E-11,  avg # of iterations =  5.0

     total cpu time spent up to now is     1261.5 secs

     total energy              =    -216.64993369 Ry
     estimated scf accuracy    <       0.00000003 Ry

     iteration # 11     ecut=    60.00 Ry     beta= 0.30
     Davidson diagonalization with overlap
     ethr =  5.02E-11,  avg # of iterations =  2.1

     total cpu time spent up to now is     1272.7 secs

     End of self-consistent calculation

     Number of k-points >= 100: set verbosity='high' to print the bands.

     highest occupied level (ev):     4.0648

!    total energy              =    -216.64993383 Ry
     estimated scf accuracy    <          1.3E-09 Ry

     The total energy is the sum of the following terms:
     one-electron contribution =     -91.22242984 Ry
     hartree contribution      =      72.14318767 Ry
     xc contribution           =     -49.22725947 Ry
     ewald contribution        =    -148.34343218 Ry

     convergence has been achieved in  11 iterations

     Forces acting on atoms (cartesian axes, Ry/au):

     atom    1 type  1   force =    -0.03466850    0.05265548   -0.04182442
     atom    2 type  1   force =     0.05877020   -0.00101522   -0.07146538
     atom    3 type  1   force =    -0.03978512   -0.01064711   -0.00540412
     atom    4 type  2   force =    -0.02905667   -0.06704496    0.04187769
     atom    5 type  2   force =     0.05406580    0.03708849    0.01697562
     atom    6 type  2   force =     0.07190480   -0.08387060    0.07771610
     atom    7 type  2   force =     0.00359164    0.04676009   -0.03527193
     atom    8 type  2   force =    -0.05844276   -0.00625863    0.01735892
     atom    9 type  2   force =    -0.02637940    0.03233246    0.00003751

     Total force =     0.234258     Total SCF correction =     0.000112


     Computing stress (Cartesian axis) and pressure

          total   stress  (Ry/bohr**3)                   (kbar)     P=      -77.11
  -0.00053545  -0.00032548  -0.00017595          -78.77      -47.88      -25.88
  -0.00032548  -0.00067128  -0.00031625          -47.88      -98.75      -46.52
  -0.00017595  -0.00031625  -0.00036572          -25.88      -46.52      -53.80

     Energy error            =      7.4E-02 Ry
     Gradient error          =      8.4E-02 Ry/Bohr
     Cell gradient error     =      9.9E+01 kbar

     number of scf cycles    =   8
     number of bfgs steps    =   4

     enthalpy           old  =    -216.5759889764 Ry
     enthalpy           new  =    -216.6499338260 Ry

     CASE: enthalpy          _new < enthalpy          _old

     new trust radius        =       0.1974015853 bohr
     new conv_thr            =       0.0000000100 Ry

     new unit-cell volume =    685.73741 a.u.^3 (   101.61580 Ang^3 )
     density =      2.94558 g/cm^3

CELL_PARAMETERS (angstrom)
   5.060038382   0.550654187  -0.194220741
  -2.043955968   3.511807708   0.711236076
  -0.169962146   0.769190585   5.517808218

ATOMIC_POSITIONS (crystal)
Si               0.4835170855        0.0528417164       -0.0169746193
Si               0.0068335732        0.5087309005        0.6678090384
Si               0.5066960025        0.4126615580        0.3583774684
O                0.3400641887        0.2086015823        0.1526330835
O                0.7741999558        0.3121124158        0.4714839252
O                0.7083732127        0.5025113990        0.8086335045
O                0.6600847755        0.8409947211        0.1741721315
O                0.2595554343        0.4012788663        0.5498607354
O                0.2606757718        0.7602668404        0.8340047324



     Writing config-only to output data dir ./tmp/quartz.save/ :
     XML data file
     NEW-OLD atomic charge density approx. for the potential
     New effective cutoffs (rho, wfc):  846.06  106.34

     total cpu time spent up to now is     1275.7 secs

     Self-consistent Calculation

     iteration #  1     ecut=    60.00 Ry     beta= 0.30
     Davidson diagonalization with overlap
     ethr =  1.00E-06,  avg # of iterations = 12.0

     total cpu time spent up to now is     1314.1 secs

     total energy              =    -216.71297337 Ry
     estimated scf accuracy    <       0.02554262 Ry

     iteration #  2     ecut=    60.00 Ry     beta= 0.30
     Davidson diagonalization with overlap
     ethr =  5.32E-05,  avg # of iterations =  1.0

     total cpu time spent up to now is     1322.5 secs

     total energy              =    -216.71028194 Ry
     estimated scf accuracy    <       0.00772094 Ry

     iteration #  3     ecut=    60.00 Ry     beta= 0.30
     Davidson diagonalization with overlap
     ethr =  1.61E-05,  avg # of iterations =  2.0

     total cpu time spent up to now is     1333.8 secs

     total energy              =    -216.71150499 Ry
     estimated scf accuracy    <       0.00056105 Ry

     iteration #  4     ecut=    60.00 Ry     beta= 0.30
     Davidson diagonalization with overlap
     ethr =  1.17E-06,  avg # of iterations =  2.0

     total cpu time spent up to now is     1344.2 secs

     total energy              =    -216.71156487 Ry
     estimated scf accuracy    <       0.00011170 Ry

     iteration #  5     ecut=    60.00 Ry     beta= 0.30
     Davidson diagonalization with overlap
     ethr =  2.33E-07,  avg # of iterations =  3.1

     total cpu time spent up to now is     1355.7 secs

     total energy              =    -216.71158508 Ry
     estimated scf accuracy    <       0.00001960 Ry

     iteration #  6     ecut=    60.00 Ry     beta= 0.30
     Davidson diagonalization with overlap
     ethr =  4.08E-08,  avg # of iterations =  3.6

     total cpu time spent up to now is     1367.9 secs

     total energy              =    -216.71158998 Ry
     estimated scf accuracy    <       0.00000821 Ry

     iteration #  7     ecut=    60.00 Ry     beta= 0.30
     Davidson diagonalization with overlap
     ethr =  1.71E-08,  avg # of iterations =  3.3

     total cpu time spent up to now is     1379.8 secs

     total energy              =    -216.71159306 Ry
     estimated scf accuracy    <       0.00000107 Ry

     iteration #  8     ecut=    60.00 Ry     beta= 0.30
     Davidson diagonalization with overlap
     ethr =  2.23E-09,  avg # of iterations =  2.0

     total cpu time spent up to now is     1390.7 secs

     total energy              =    -216.71159368 Ry
     estimated scf accuracy    <       0.00000023 Ry

     iteration #  9     ecut=    60.00 Ry     beta= 0.30
     Davidson diagonalization with overlap
     ethr =  4.86E-10,  avg # of iterations =  5.0

     total cpu time spent up to now is     1405.0 secs

     total energy              =    -216.71159403 Ry
     estimated scf accuracy    <       0.00000018 Ry

     iteration # 10     ecut=    60.00 Ry     beta= 0.30
     Davidson diagonalization with overlap
     ethr =  3.77E-10,  avg # of iterations =  3.4

     total cpu time spent up to now is     1416.7 secs

     End of self-consistent calculation

     Number of k-points >= 100: set verbosity='high' to print the bands.

     highest occupied level (ev):     4.4246

!    total energy              =    -216.71159432 Ry
     estimated scf accuracy    <          3.7E-09 Ry

     The total energy is the sum of the following terms:
     one-electron contribution =     -83.37613016 Ry
     hartree contribution      =      69.12132628 Ry
     xc contribution           =     -49.41516815 Ry
     ewald contribution        =    -153.04162228 Ry

     convergence has been achieved in  10 iterations

     Forces acting on atoms (cartesian axes, Ry/au):

     atom    1 type  1   force =    -0.02467821    0.01855634   -0.03706753
     atom    2 type  1   force =     0.04786473    0.02219185   -0.00070405
     atom    3 type  1   force =    -0.05587641    0.02615943    0.01747857
     atom    4 type  2   force =    -0.01744730   -0.08315393    0.04238347
     atom    5 type  2   force =     0.00994191    0.00038781   -0.01604376
     atom    6 type  2   force =     0.10272289   -0.05316040    0.02453226
     atom    7 type  2   force =    -0.01285105    0.04365019   -0.02944708
     atom    8 type  2   force =    -0.02444311    0.00087081    0.00836849
     atom    9 type  2   force =    -0.02523345    0.02449790   -0.00950036

     Total force =     0.193670     Total SCF correction =     0.000191


     Computing stress (Cartesian axis) and pressure

          total   stress  (Ry/bohr**3)                   (kbar)     P=      -38.88
  -0.00042556  -0.00026944   0.00003070          -62.60      -39.64        4.52
  -0.00026944  -0.00025451  -0.00037120          -39.64      -37.44      -54.61
   0.00003070  -0.00037120  -0.00011281            4.52      -54.61      -16.60

     Energy error            =      6.2E-02 Ry
     Gradient error          =      1.0E-01 Ry/Bohr
     Cell gradient error     =      6.3E+01 kbar

     number of scf cycles    =   9
     number of bfgs steps    =   5

     enthalpy           old  =    -216.6499338260 Ry
     enthalpy           new  =    -216.7115943183 Ry

     CASE: enthalpy          _new < enthalpy          _old

     new trust radius        =       0.1762219742 bohr
     new conv_thr            =       0.0000000100 Ry

     new unit-cell volume =    663.86157 a.u.^3 (    98.37413 Ang^3 )
     density =      3.04264 g/cm^3

CELL_PARAMETERS (angstrom)
   4.999127227   0.486316360  -0.236664639
  -2.071677205   3.473048516   0.686301050
  -0.219703814   0.721076981   5.484490561

ATOMIC_POSITIONS (crystal)
Si               0.4853074487        0.0651800126       -0.0183445580
Si               0.0146288620        0.5061312105        0.6584230615
Si               0.5047251859        0.4127982098        0.3607899443
O                0.3212212892        0.1904264748        0.1567529596
O                0.7799581552        0.3185974782        0.4704191483
O                0.7169390517        0.4951071087        0.8210796171
O                0.6652440738        0.8492230230        0.1709248478
O                0.2584947776        0.3992139110        0.5474701364
O                0.2534811559        0.7633225715        0.8324848429



     Writing config-only to output data dir ./tmp/quartz.save/ :
     XML data file
     NEW-OLD atomic charge density approx. for the potential
     New effective cutoffs (rho, wfc):  849.91  106.74

     negative rho (up, down):  1.643E-07 0.000E+00

     total cpu time spent up to now is     1419.6 secs

     Self-consistent Calculation

     iteration #  1     ecut=    60.00 Ry     beta= 0.30
     Davidson diagonalization with overlap
     ethr =  1.00E-06,  avg # of iterations = 10.9

     total cpu time spent up to now is     1454.2 secs

     total energy              =    -216.74498918 Ry
     estimated scf accuracy    <       0.01550903 Ry

     iteration #  2     ecut=    60.00 Ry     beta= 0.30
     Davidson diagonalization with overlap
     ethr =  3.23E-05,  avg # of iterations =  1.1

     total cpu time spent up to now is     1462.6 secs

     total energy              =    -216.74368202 Ry
     estimated scf accuracy    <       0.00427036 Ry

     iteration #  3     ecut=    60.00 Ry     beta= 0.30
     Davidson diagonalization with overlap
     ethr =  8.90E-06,  avg # of iterations =  2.0

     total cpu time spent up to now is     1474.0 secs

     total energy              =    -216.74445873 Ry
     estimated scf accuracy    <       0.00041714 Ry

     iteration #  4     ecut=    60.00 Ry     beta= 0.30
     Davidson diagonalization with overlap
     ethr =  8.69E-07,  avg # of iterations =  2.0

     total cpu time spent up to now is     1484.3 secs

     total energy              =    -216.74448124 Ry
     estimated scf accuracy    <       0.00010937 Ry

     iteration #  5     ecut=    60.00 Ry     beta= 0.30
     Davidson diagonalization with overlap
     ethr =  2.28E-07,  avg # of iterations =  2.0

     total cpu time spent up to now is     1495.5 secs

     total energy              =    -216.74450137 Ry
     estimated scf accuracy    <       0.00001433 Ry

     iteration #  6     ecut=    60.00 Ry     beta= 0.30
     Davidson diagonalization with overlap
     ethr =  2.99E-08,  avg # of iterations =  3.1

     total cpu time spent up to now is     1507.9 secs

     total energy              =    -216.74450580 Ry
     estimated scf accuracy    <       0.00000643 Ry

     iteration #  7     ecut=    60.00 Ry     beta= 0.30
     Davidson diagonalization with overlap
     ethr =  1.34E-08,  avg # of iterations =  2.0

     total cpu time spent up to now is     1519.1 secs

     total energy              =    -216.74450742 Ry
     estimated scf accuracy    <       0.00000046 Ry

     iteration #  8     ecut=    60.00 Ry     beta= 0.30
     Davidson diagonalization with overlap
     ethr =  9.54E-10,  avg # of iterations =  5.0

     total cpu time spent up to now is     1534.0 secs

     total energy              =    -216.74450775 Ry
     estimated scf accuracy    <       0.00000063 Ry

     iteration #  9     ecut=    60.00 Ry     beta= 0.30
     Davidson diagonalization with overlap
     ethr =  9.54E-10,  avg # of iterations =  3.9

     total cpu time spent up to now is     1547.1 secs

     total energy              =    -216.74450811 Ry
     estimated scf accuracy    <       0.00000010 Ry

     iteration # 10     ecut=    60.00 Ry     beta= 0.30
     Davidson diagonalization with overlap
     ethr =  2.09E-10,  avg # of iterations =  2.4

     total cpu time spent up to now is     1558.3 secs

     End of self-consistent calculation

     Number of k-points >= 100: set verbosity='high' to print the bands.

     highest occupied level (ev):     4.6962

!    total energy              =    -216.74450833 Ry
     estimated scf accuracy    <          6.3E-09 Ry

     The total energy is the sum of the following terms:
     one-electron contribution =     -78.57330873 Ry
     hartree contribution      =      67.24933820 Ry
     xc contribution           =     -49.59249476 Ry
     ewald contribution        =    -155.82804303 Ry

     convergence has been achieved in  10 iterations

     Forces acting on atoms (cartesian axes, Ry/au):

     atom    1 type  1   force =    -0.00834887   -0.02352233   -0.01431166
     atom    2 type  1   force =     0.02862010    0.05326094    0.08574503
     atom    3 type  1   force =    -0.06250363    0.04875429   -0.03405835
     atom    4 type  2   force =    -0.00729791   -0.05930539    0.05274204
     atom    5 type  2   force =    -0.03797265   -0.03437086   -0.06010045
     atom    6 type  2   force =     0.09048141   -0.02992203   -0.01710379
     atom    7 type  2   force =    -0.01285848    0.00736583   -0.00438834
     atom    8 type  2   force =     0.00764533    0.00259029    0.00825600
     atom    9 type  2   force =     0.00223470    0.03514925   -0.01678049

     Total force =     0.207692     Total SCF correction =     0.000115


     Computing stress (Cartesian axis) and pressure

          total   stress  (Ry/bohr**3)                   (kbar)     P=       15.99
   0.00013153  -0.00005584   0.00015878           19.35       -8.21       23.36
  -0.00005584   0.00005915  -0.00016454           -8.21        8.70      -24.20
   0.00015878  -0.00016454   0.00013547           23.36      -24.20       19.93

     Energy error            =      3.3E-02 Ry
     Gradient error          =      9.0E-02 Ry/Bohr
     Cell gradient error     =      2.4E+01 kbar

     number of scf cycles    =  10
     number of bfgs steps    =   6

     enthalpy           old  =    -216.7115943183 Ry
     enthalpy           new  =    -216.7445083260 Ry

     CASE: enthalpy          _new < enthalpy          _old

     new trust radius        =       0.1314027355 bohr
     new conv_thr            =       0.0000000100 Ry

     new unit-cell volume =    661.13096 a.u.^3 (    97.96950 Ang^3 )
     density =      3.05521 g/cm^3

CELL_PARAMETERS (angstrom)
   4.983878036   0.458234250  -0.235810085
  -2.090469210   3.465563593   0.641138346
  -0.224436289   0.676555000   5.488090134

ATOMIC_POSITIONS (crystal)
Si               0.4843588045        0.0682159080       -0.0193707238
Si               0.0293181817        0.5099041499        0.6605503388
Si               0.5008479358        0.4172327863        0.3592892398
O                0.3088943729        0.1760182584        0.1626705283
O                0.7740603902        0.3173750160        0.4643851687
O                0.7259616312        0.4897385117        0.8240592182
O                0.6651569834        0.8531438734        0.1682569305
O                0.2574500198        0.3998108351        0.5495649715
O                0.2539516806        0.7685606613        0.8305943280



     Writing config-only to output data dir ./tmp/quartz.save/ :
     XML data file
     NEW-OLD atomic charge density approx. for the potential
     New effective cutoffs (rho, wfc):  834.75  104.80

     total cpu time spent up to now is     1561.7 secs

     Self-consistent Calculation

     iteration #  1     ecut=    60.00 Ry     beta= 0.30
     Davidson diagonalization with overlap
     ethr =  1.00E-06,  avg # of iterations = 10.0

     total cpu time spent up to now is     1594.4 secs

     total energy              =    -216.77008324 Ry
     estimated scf accuracy    <       0.00897243 Ry

     iteration #  2     ecut=    60.00 Ry     beta= 0.30
     Davidson diagonalization with overlap
     ethr =  1.87E-05,  avg # of iterations =  1.0

     total cpu time spent up to now is     1602.8 secs

     total energy              =    -216.76893990 Ry
     estimated scf accuracy    <       0.00290232 Ry

     iteration #  3     ecut=    60.00 Ry     beta= 0.30
     Davidson diagonalization with overlap
     ethr =  6.05E-06,  avg # of iterations =  2.0

     total cpu time spent up to now is     1614.2 secs

     total energy              =    -216.76943426 Ry
     estimated scf accuracy    <       0.00020604 Ry

     iteration #  4     ecut=    60.00 Ry     beta= 0.30
     Davidson diagonalization with overlap
     ethr =  4.29E-07,  avg # of iterations =  2.0

     total cpu time spent up to now is     1625.1 secs

     total energy              =    -216.76946386 Ry
     estimated scf accuracy    <       0.00004973 Ry

     iteration #  5     ecut=    60.00 Ry     beta= 0.30
     Davidson diagonalization with overlap
     ethr =  1.04E-07,  avg # of iterations =  2.1

     total cpu time spent up to now is     1635.3 secs

     total energy              =    -216.76946895 Ry
     estimated scf accuracy    <       0.00001432 Ry

     iteration #  6     ecut=    60.00 Ry     beta= 0.30
     Davidson diagonalization with overlap
     ethr =  2.98E-08,  avg # of iterations =  2.8

     total cpu time spent up to now is     1647.4 secs

     total energy              =    -216.76947171 Ry
     estimated scf accuracy    <       0.00000463 Ry

     iteration #  7     ecut=    60.00 Ry     beta= 0.30
     Davidson diagonalization with overlap
     ethr =  9.66E-09,  avg # of iterations =  2.8

     total cpu time spent up to now is     1658.6 secs

     total energy              =    -216.76947308 Ry
     estimated scf accuracy    <       0.00000026 Ry

     iteration #  8     ecut=    60.00 Ry     beta= 0.30
     Davidson diagonalization with overlap
     ethr =  5.50E-10,  avg # of iterations =  6.0

     total cpu time spent up to now is     1677.3 secs

     total energy              =    -216.76947323 Ry
     estimated scf accuracy    <       0.00000164 Ry

     iteration #  9     ecut=    60.00 Ry     beta= 0.30
     Davidson diagonalization with overlap
     ethr =  5.50E-10,  avg # of iterations =  5.1

     total cpu time spent up to now is     1693.9 secs

     total energy              =    -216.76947372 Ry
     estimated scf accuracy    <       0.00000001 Ry

     iteration # 10     ecut=    60.00 Ry     beta= 0.30
     Davidson diagonalization with overlap
     ethr =  2.57E-11,  avg # of iterations =  4.1

     total cpu time spent up to now is     1708.1 secs

     total energy              =    -216.76947382 Ry
     estimated scf accuracy    <       0.00000002 Ry

     iteration # 11     ecut=    60.00 Ry     beta= 0.30
     Davidson diagonalization with overlap
     ethr =  2.57E-11,  avg # of iterations =  2.0

     total cpu time spent up to now is     1717.6 secs

     End of self-consistent calculation

     Number of k-points >= 100: set verbosity='high' to print the bands.

     highest occupied level (ev):     4.8046

!    total energy              =    -216.76947387 Ry
     estimated scf accuracy    <          4.2E-09 Ry

     The total energy is the sum of the following terms:
     one-electron contribution =     -77.70946197 Ry
     hartree contribution      =      66.85653850 Ry
     xc contribution           =     -49.63163908 Ry
     ewald contribution        =    -156.28491133 Ry

     convergence has been achieved in  11 iterations

     Forces acting on atoms (cartesian axes, Ry/au):

     atom    1 type  1   force =     0.01266543   -0.00839879    0.01267341
     atom    2 type  1   force =    -0.08417395   -0.01431848    0.03375759
     atom    3 type  1   force =    -0.03202798    0.06285021   -0.04650380
     atom    4 type  2   force =     0.00066742   -0.04673674    0.02850542
     atom    5 type  2   force =    -0.00653451    0.00618557   -0.01323588
     atom    6 type  2   force =     0.06838762   -0.03344465   -0.00927185
     atom    7 type  2   force =    -0.02209170   -0.01280522    0.00272045
     atom    8 type  2   force =     0.04333703   -0.00645710   -0.00636468
     atom    9 type  2   force =     0.01977064    0.05312520   -0.00228065

     Total force =     0.175878     Total SCF correction =     0.000068


     Computing stress (Cartesian axis) and pressure

          total   stress  (Ry/bohr**3)                   (kbar)     P=       27.48
   0.00027426  -0.00010413   0.00006996           40.35      -15.32       10.29
  -0.00010413   0.00014767   0.00001034          -15.32       21.72        1.52
   0.00006996   0.00001034   0.00013844           10.29        1.52       20.37

     Energy error            =      2.5E-02 Ry
     Gradient error          =      8.4E-02 Ry/Bohr
     Cell gradient error     =      4.0E+01 kbar

     number of scf cycles    =  12
     number of bfgs steps    =   7

     enthalpy           old  =    -216.7445083260 Ry
     enthalpy           new  =    -216.7694738750 Ry

     CASE: enthalpy          _new < enthalpy          _old

     new trust radius        =       0.1523006577 bohr
     new conv_thr            =       0.0000000100 Ry

     new unit-cell volume =    669.21461 a.u.^3 (    99.16737 Ang^3 )
     density =      3.01830 g/cm^3

CELL_PARAMETERS (angstrom)
   4.997667897   0.407528644  -0.233431368
  -2.146031091   3.497158404   0.588650994
  -0.226114920   0.620932583   5.499167889

ATOMIC_POSITIONS (crystal)
Si               0.4865115976        0.0719227200       -0.0162541762
Si               0.0298289014        0.5047147066        0.6608557080
Si               0.5010816019        0.4300551877        0.3532018598
O                0.2965331471        0.1588928811        0.1681984698
O                0.7685805826        0.3157831751        0.4593664139
O                0.7396881531        0.4841583437        0.8263383040
O                0.6588348939        0.8549905745        0.1665321285
O                0.2613204265        0.4005705556        0.5512066870
O                0.2576206960        0.7789118557        0.8305546051



     Writing config-only to output data dir ./tmp/quartz.save/ :
     XML data file
     NEW-OLD atomic charge density approx. for the potential
     New effective cutoffs (rho, wfc):  800.26  100.37

     total cpu time spent up to now is     1720.6 secs

     Self-consistent Calculation

     iteration #  1     ecut=    60.00 Ry     beta= 0.30
     Davidson diagonalization with overlap
     ethr =  1.00E-06,  avg # of iterations = 10.5

     total cpu time spent up to now is     1753.8 secs

     total energy              =    -216.79479955 Ry
     estimated scf accuracy    <       0.01041635 Ry

     iteration #  2     ecut=    60.00 Ry     beta= 0.30
     Davidson diagonalization with overlap
     ethr =  2.17E-05,  avg # of iterations =  1.0

     total cpu time spent up to now is     1762.1 secs

     total energy              =    -216.79359280 Ry
     estimated scf accuracy    <       0.00322668 Ry

     iteration #  3     ecut=    60.00 Ry     beta= 0.30
     Davidson diagonalization with overlap
     ethr =  6.72E-06,  avg # of iterations =  2.0

     total cpu time spent up to now is     1773.5 secs

     total energy              =    -216.79421447 Ry
     estimated scf accuracy    <       0.00016735 Ry

     iteration #  4     ecut=    60.00 Ry     beta= 0.30
     Davidson diagonalization with overlap
     ethr =  3.49E-07,  avg # of iterations =  3.7

     total cpu time spent up to now is     1785.6 secs

     total energy              =    -216.79424771 Ry
     estimated scf accuracy    <       0.00005560 Ry

     iteration #  5     ecut=    60.00 Ry     beta= 0.30
     Davidson diagonalization with overlap
     ethr =  1.16E-07,  avg # of iterations =  2.4

     total cpu time spent up to now is     1797.2 secs

     total energy              =    -216.79425873 Ry
     estimated scf accuracy    <       0.00001272 Ry

     iteration #  6     ecut=    60.00 Ry     beta= 0.30
     Davidson diagonalization with overlap
     ethr =  2.65E-08,  avg # of iterations =  2.5

     total cpu time spent up to now is     1808.3 secs

     total energy              =    -216.79426228 Ry
     estimated scf accuracy    <       0.00000221 Ry

     iteration #  7     ecut=    60.00 Ry     beta= 0.30
     Davidson diagonalization with overlap
     ethr =  4.60E-09,  avg # of iterations =  2.9

     total cpu time spent up to now is     1820.2 secs

     total energy              =    -216.79426347 Ry
     estimated scf accuracy    <       0.00000043 Ry

     iteration #  8     ecut=    60.00 Ry     beta= 0.30
     Davidson diagonalization with overlap
     ethr =  8.97E-10,  avg # of iterations =  5.0

     total cpu time spent up to now is     1836.0 secs

     total energy              =    -216.79426379 Ry
     estimated scf accuracy    <       0.00000109 Ry

     iteration #  9     ecut=    60.00 Ry     beta= 0.30
     Davidson diagonalization with overlap
     ethr =  8.97E-10,  avg # of iterations =  5.0

     total cpu time spent up to now is     1851.1 secs

     total energy              =    -216.79426434 Ry
     estimated scf accuracy    <       0.00000006 Ry

     iteration # 10     ecut=    60.00 Ry     beta= 0.30
     Davidson diagonalization with overlap
     ethr =  1.16E-10,  avg # of iterations =  3.0

     total cpu time spent up to now is     1862.4 secs

     End of self-consistent calculation

     Number of k-points >= 100: set verbosity='high' to print the bands.

     highest occupied level (ev):     4.6226

!    total energy              =    -216.79426457 Ry
     estimated scf accuracy    <          3.4E-09 Ry

     The total energy is the sum of the following terms:
     one-electron contribution =     -79.25424901 Ry
     hartree contribution      =      67.35780914 Ry
     xc contribution           =     -49.61339523 Ry
     ewald contribution        =    -155.28442947 Ry

     convergence has been achieved in  10 iterations

     Forces acting on atoms (cartesian axes, Ry/au):

     atom    1 type  1   force =     0.00234083    0.00175859    0.00639127
     atom    2 type  1   force =    -0.06784350    0.00151895    0.02603648
     atom    3 type  1   force =    -0.01536847    0.02922224   -0.03374958
     atom    4 type  2   force =     0.01737975   -0.01259291    0.01537885
     atom    5 type  2   force =    -0.01556620    0.02959626   -0.01523302
     atom    6 type  2   force =     0.02998517   -0.05488148    0.01980281
     atom    7 type  2   force =    -0.00250299   -0.01712958    0.01057974
     atom    8 type  2   force =     0.03082617   -0.00405573   -0.00000337
     atom    9 type  2   force =     0.02074924    0.02656366   -0.02920317

     Total force =     0.131452     Total SCF correction =     0.000154


     Computing stress (Cartesian axis) and pressure

          total   stress  (Ry/bohr**3)                   (kbar)     P=       18.42
   0.00020372  -0.00007856   0.00003893           29.97      -11.56        5.73
  -0.00007856   0.00007653   0.00008248          -11.56       11.26       12.13
   0.00003893   0.00008248   0.00009539            5.73       12.13       14.03

     Energy error            =      2.5E-02 Ry
     Gradient error          =      6.8E-02 Ry/Bohr
     Cell gradient error     =      3.0E+01 kbar

     number of scf cycles    =  13
     number of bfgs steps    =   8

     enthalpy           old  =    -216.7694738750 Ry
     enthalpy           new  =    -216.7942645726 Ry

     CASE: enthalpy          _new < enthalpy          _old

     new trust radius        =       0.2237543700 bohr
     new conv_thr            =       0.0000000100 Ry

     new unit-cell volume =    677.16914 a.u.^3 (   100.34611 Ang^3 )
     density =      2.98285 g/cm^3

CELL_PARAMETERS (angstrom)
   5.037156013   0.369394304  -0.228005087
  -2.208981829   3.495552260   0.565727952
  -0.218973881   0.608031768   5.535980364

ATOMIC_POSITIONS (crystal)
Si               0.4900220110        0.0814077272       -0.0136394195
Si               0.0285379068        0.5047188346        0.6657867517
Si               0.4957837889        0.4399640347        0.3439244719
O                0.2772355426        0.1308514803        0.1799658340
O                0.7658413254        0.3291580370        0.4521932448
O                0.7471263218        0.4623936725        0.8337423567
O                0.6560568916        0.8556351217        0.1616123798
O                0.2656588813        0.4006332686        0.5551334138
O                0.2737373305        0.7952378234        0.8212809667



     Writing config-only to output data dir ./tmp/quartz.save/ :
     XML data file
     NEW-OLD atomic charge density approx. for the potential
     New effective cutoffs (rho, wfc):  786.26   98.63

     negative rho (up, down):  4.616E-07 0.000E+00

     total cpu time spent up to now is     1865.4 secs

     Self-consistent Calculation

     iteration #  1     ecut=    60.00 Ry     beta= 0.30
     Davidson diagonalization with overlap
     ethr =  1.00E-06,  avg # of iterations = 11.8

     total cpu time spent up to now is     1902.9 secs

     total energy              =    -216.81144556 Ry
     estimated scf accuracy    <       0.02405594 Ry

     iteration #  2     ecut=    60.00 Ry     beta= 0.30
     Davidson diagonalization with overlap
     ethr =  5.01E-05,  avg # of iterations =  1.0

     total cpu time spent up to now is     1911.4 secs

     total energy              =    -216.80871350 Ry
     estimated scf accuracy    <       0.00719677 Ry

     iteration #  3     ecut=    60.00 Ry     beta= 0.30
     Davidson diagonalization with overlap
     ethr =  1.50E-05,  avg # of iterations =  2.0

     total cpu time spent up to now is     1922.8 secs

     total energy              =    -216.81000451 Ry
     estimated scf accuracy    <       0.00045264 Ry

     iteration #  4     ecut=    60.00 Ry     beta= 0.30
     Davidson diagonalization with overlap
     ethr =  9.43E-07,  avg # of iterations =  2.7

     total cpu time spent up to now is     1934.4 secs

     total energy              =    -216.81008283 Ry
     estimated scf accuracy    <       0.00010596 Ry

     iteration #  5     ecut=    60.00 Ry     beta= 0.30
     Davidson diagonalization with overlap
     ethr =  2.21E-07,  avg # of iterations =  2.1

     total cpu time spent up to now is     1944.4 secs

     total energy              =    -216.81009225 Ry
     estimated scf accuracy    <       0.00002581 Ry

     iteration #  6     ecut=    60.00 Ry     beta= 0.30
     Davidson diagonalization with overlap
     ethr =  5.38E-08,  avg # of iterations =  2.2

     total cpu time spent up to now is     1955.5 secs

     total energy              =    -216.81009717 Ry
     estimated scf accuracy    <       0.00000332 Ry

     iteration #  7     ecut=    60.00 Ry     beta= 0.30
     Davidson diagonalization with overlap
     ethr =  6.91E-09,  avg # of iterations =  3.1

     total cpu time spent up to now is     1967.9 secs

     total energy              =    -216.81009900 Ry
     estimated scf accuracy    <       0.00000093 Ry

     iteration #  8     ecut=    60.00 Ry     beta= 0.30
     Davidson diagonalization with overlap
     ethr =  1.93E-09,  avg # of iterations =  2.1

     total cpu time spent up to now is     1978.9 secs

     total energy              =    -216.81009946 Ry
     estimated scf accuracy    <       0.00000033 Ry

     iteration #  9     ecut=    60.00 Ry     beta= 0.30
     Davidson diagonalization with overlap
     ethr =  6.90E-10,  avg # of iterations =  4.9

     total cpu time spent up to now is     1993.3 secs

     total energy              =    -216.81009974 Ry
     estimated scf accuracy    <       0.00000033 Ry

     iteration # 10     ecut=    60.00 Ry     beta= 0.30
     Davidson diagonalization with overlap
     ethr =  6.88E-10,  avg # of iterations =  3.7

     total cpu time spent up to now is     2006.1 secs

     total energy              =    -216.81009989 Ry
     estimated scf accuracy    <       0.00000005 Ry

     iteration # 11     ecut=    60.00 Ry     beta= 0.30
     Davidson diagonalization with overlap
     ethr =  9.95E-11,  avg # of iterations =  2.1

     total cpu time spent up to now is     2016.2 secs

     total energy              =    -216.81009995 Ry
     estimated scf accuracy    <       0.00000001 Ry

     iteration # 12     ecut=    60.00 Ry     beta= 0.30
     Davidson diagonalization with overlap
     ethr =  2.27E-11,  avg # of iterations =  3.3

     total cpu time spent up to now is     2024.8 secs

     End of self-consistent calculation

     Number of k-points >= 100: set verbosity='high' to print the bands.

     highest occupied level (ev):     4.2806

!    total energy              =    -216.81009999 Ry
     estimated scf accuracy    <          4.1E-10 Ry

     The total energy is the sum of the following terms:
     one-electron contribution =     -80.84990580 Ry
     hartree contribution      =      67.88600224 Ry
     xc contribution           =     -49.58623991 Ry
     ewald contribution        =    -154.25995652 Ry

     convergence has been achieved in  12 iterations

     Forces acting on atoms (cartesian axes, Ry/au):

     atom    1 type  1   force =    -0.03217021   -0.08280773    0.04332696
     atom    2 type  1   force =    -0.01564956    0.00109709   -0.04200798
     atom    3 type  1   force =     0.00551063   -0.01213842    0.01696312
     atom    4 type  2   force =     0.05102340    0.02133960   -0.01800929
     atom    5 type  2   force =    -0.01358557    0.05041972   -0.00221095
     atom    6 type  2   force =     0.01839245    0.02085159    0.01841326
     atom    7 type  2   force =    -0.01151507   -0.00433449    0.00000488
     atom    8 type  2   force =    -0.00657208    0.00027040    0.00956375
     atom    9 type  2   force =     0.00456601    0.00530224   -0.02604375

     Total force =     0.143128     Total SCF correction =     0.000064


     Computing stress (Cartesian axis) and pressure

          total   stress  (Ry/bohr**3)                   (kbar)     P=        7.50
  -0.00021436  -0.00009309   0.00000114          -31.53      -13.69        0.17
  -0.00009309   0.00035394  -0.00019944          -13.69       52.07      -29.34
   0.00000114  -0.00019944   0.00001339            0.17      -29.34        1.97

     Energy error            =      1.6E-02 Ry
     Gradient error          =      8.3E-02 Ry/Bohr
     Cell gradient error     =      5.2E+01 kbar

     number of scf cycles    =  14
     number of bfgs steps    =   9

     enthalpy           old  =    -216.7942645726 Ry
     enthalpy           new  =    -216.8100999903 Ry

     CASE: enthalpy          _new < enthalpy          _old

     new trust radius        =       0.1156866305 bohr
     new conv_thr            =       0.0000000100 Ry

     new unit-cell volume =    693.03407 a.u.^3 (   102.69705 Ang^3 )
     density =      2.91456 g/cm^3

CELL_PARAMETERS (angstrom)
   5.041340013   0.331798654  -0.214684774
  -2.243915916   3.569562230   0.520156713
  -0.207140145   0.560618122   5.554541117

ATOMIC_POSITIONS (crystal)
Si               0.4831999586        0.0740574616       -0.0090626243
Si               0.0245252048        0.5021610418        0.6648944467
Si               0.4957117698        0.4469872850        0.3405922725
O                0.2823312206        0.1279248339        0.1809713695
O                0.7632180063        0.3327314631        0.4493672441
O                0.7546674788        0.4598077780        0.8362990913
O                0.6501110300        0.8541749902        0.1620000086
O                0.2681099799        0.4016771872        0.5576641738
O                0.2781253511        0.8004779592        0.8172740178



     Writing config-only to output data dir ./tmp/quartz.save/ :
     XML data file
     NEW-OLD atomic charge density approx. for the potential
     New effective cutoffs (rho, wfc):  744.94   93.46

     total cpu time spent up to now is     2026.9 secs

     Self-consistent Calculation

     iteration #  1     ecut=    60.00 Ry     beta= 0.30
     Davidson diagonalization with overlap
     ethr =  1.00E-06,  avg # of iterations = 10.0

     total cpu time spent up to now is     2050.4 secs

     total energy              =    -216.82304989 Ry
     estimated scf accuracy    <       0.00528441 Ry

     iteration #  2     ecut=    60.00 Ry     beta= 0.30
     Davidson diagonalization with overlap
     ethr =  1.10E-05,  avg # of iterations =  1.0

     total cpu time spent up to now is     2056.2 secs

     total energy              =    -216.82248262 Ry
     estimated scf accuracy    <       0.00166737 Ry

     iteration #  3     ecut=    60.00 Ry     beta= 0.30
     Davidson diagonalization with overlap
     ethr =  3.47E-06,  avg # of iterations =  2.0

     total cpu time spent up to now is     2063.6 secs

     total energy              =    -216.82274361 Ry
     estimated scf accuracy    <       0.00012939 Ry

     iteration #  4     ecut=    60.00 Ry     beta= 0.30
     Davidson diagonalization with overlap
     ethr =  2.70E-07,  avg # of iterations =  3.1

     total cpu time spent up to now is     2071.6 secs

     total energy              =    -216.82277390 Ry
     estimated scf accuracy    <       0.00002453 Ry

     iteration #  5     ecut=    60.00 Ry     beta= 0.30
     Davidson diagonalization with overlap
     ethr =  5.11E-08,  avg # of iterations =  2.3

     total cpu time spent up to now is     2078.5 secs

     total energy              =    -216.82277906 Ry
     estimated scf accuracy    <       0.00000726 Ry

     iteration #  6     ecut=    60.00 Ry     beta= 0.30
     Davidson diagonalization with overlap
     ethr =  1.51E-08,  avg # of iterations =  2.0

     total cpu time spent up to now is     2086.0 secs

     total energy              =    -216.82278196 Ry
     estimated scf accuracy    <       0.00000106 Ry

     iteration #  7     ecut=    60.00 Ry     beta= 0.30
     Davidson diagonalization with overlap
     ethr =  2.21E-09,  avg # of iterations =  2.3

     total cpu time spent up to now is     2093.5 secs

     total energy              =    -216.82278306 Ry
     estimated scf accuracy    <       0.00000015 Ry

     iteration #  8     ecut=    60.00 Ry     beta= 0.30
     Davidson diagonalization with overlap
     ethr =  3.19E-10,  avg # of iterations =  5.0

     total cpu time spent up to now is     2104.2 secs

     total energy              =    -216.82278348 Ry
     estimated scf accuracy    <       0.00000048 Ry

     iteration #  9     ecut=    60.00 Ry     beta= 0.30
     Davidson diagonalization with overlap
     ethr =  3.19E-10,  avg # of iterations =  4.7

     total cpu time spent up to now is     2113.8 secs

     total energy              =    -216.82278382 Ry
     estimated scf accuracy    <       0.00000001 Ry

     iteration # 10     ecut=    60.00 Ry     beta= 0.30
     Davidson diagonalization with overlap
     ethr =  2.58E-11,  avg # of iterations =  2.3

     total cpu time spent up to now is     2121.0 secs

     End of self-consistent calculation

     Number of k-points >= 100: set verbosity='high' to print the bands.

     highest occupied level (ev):     4.0943

!    total energy              =    -216.82278407 Ry
     estimated scf accuracy    <          5.5E-09 Ry

     The total energy is the sum of the following terms:
     one-electron contribution =     -84.73758349 Ry
     hartree contribution      =      69.37667574 Ry
     xc contribution           =     -49.54146132 Ry
     ewald contribution        =    -151.92041500 Ry

     convergence has been achieved in  10 iterations

     Forces acting on atoms (cartesian axes, Ry/au):

     atom    1 type  1   force =     0.02384802   -0.02584575   -0.01263958
     atom    2 type  1   force =     0.01319097    0.01280954   -0.04565916
     atom    3 type  1   force =     0.01098285   -0.01365493    0.02938493
     atom    4 type  2   force =     0.01357376    0.03280456   -0.00144794
     atom    5 type  2   force =    -0.01675235    0.06073702   -0.01097317
     atom    6 type  2   force =    -0.02414974   -0.04774651    0.06932228
     atom    7 type  2   force =    -0.00613794   -0.01558954    0.00575773
     atom    8 type  2   force =    -0.01310189   -0.00165417    0.00231121
     atom    9 type  2   force =    -0.00145368   -0.00186022   -0.03605628

     Total force =     0.140749     Total SCF correction =     0.000109


     Computing stress (Cartesian axis) and pressure

          total   stress  (Ry/bohr**3)                   (kbar)     P=       -8.20
  -0.00018188  -0.00012124  -0.00006461          -26.76      -17.84       -9.50
  -0.00012124   0.00001562   0.00000981          -17.84        2.30        1.44
  -0.00006461   0.00000981  -0.00000094           -9.50        1.44       -0.14

     Energy error            =      1.3E-02 Ry
     Gradient error          =      6.9E-02 Ry/Bohr
     Cell gradient error     =      2.7E+01 kbar

     number of scf cycles    =  15
     number of bfgs steps    =  10

     enthalpy           old  =    -216.8100999903 Ry
     enthalpy           new  =    -216.8227840723 Ry

     CASE: enthalpy          _new < enthalpy          _old

     new trust radius        =       0.1296849064 bohr
     new conv_thr            =       0.0000000100 Ry

     new unit-cell volume =    702.58441 a.u.^3 (   104.11227 Ang^3 )
     density =      2.87494 g/cm^3

CELL_PARAMETERS (angstrom)
   5.024792009   0.284809596  -0.215648921
  -2.277813969   3.632643558   0.494020339
  -0.207765292   0.527546924   5.573725514

ATOMIC_POSITIONS (crystal)
Si               0.4785522298        0.0662730234       -0.0067640653
Si               0.0231935270        0.5037033132        0.6604105814
Si               0.4944282447        0.4501555139        0.3404781272
O                0.2859909515        0.1252137396        0.1838143393
O                0.7645807546        0.3457796296        0.4454686938
O                0.7568630164        0.4502459679        0.8472213549
O                0.6450469246        0.8517440089        0.1618410427
O                0.2685371135        0.4012851227        0.5592267030
O                0.2828072380        0.8055996808        0.8083032229



     Writing config-only to output data dir ./tmp/quartz.save/ :
     XML data file
     NEW-OLD atomic charge density approx. for the potential
     New effective cutoffs (rho, wfc):  714.80   89.71

     total cpu time spent up to now is     2123.1 secs

     Self-consistent Calculation

     iteration #  1     ecut=    60.00 Ry     beta= 0.30
     Davidson diagonalization with overlap
     ethr =  1.00E-06,  avg # of iterations = 10.0

     total cpu time spent up to now is     2144.7 secs

     total energy              =    -216.84301292 Ry
     estimated scf accuracy    <       0.00557893 Ry

     iteration #  2     ecut=    60.00 Ry     beta= 0.30
     Davidson diagonalization with overlap
     ethr =  1.16E-05,  avg # of iterations =  1.0

     total cpu time spent up to now is     2150.6 secs

     total energy              =    -216.84229730 Ry
     estimated scf accuracy    <       0.00186951 Ry

     iteration #  3     ecut=    60.00 Ry     beta= 0.30
     Davidson diagonalization with overlap
     ethr =  3.89E-06,  avg # of iterations =  2.0

     total cpu time spent up to now is     2158.1 secs

     total energy              =    -216.84261981 Ry
     estimated scf accuracy    <       0.00009928 Ry

     iteration #  4     ecut=    60.00 Ry     beta= 0.30
     Davidson diagonalization with overlap
     ethr =  2.07E-07,  avg # of iterations =  3.0

     total cpu time spent up to now is     2165.4 secs

     total energy              =    -216.84263638 Ry
     estimated scf accuracy    <       0.00002674 Ry

     iteration #  5     ecut=    60.00 Ry     beta= 0.30
     Davidson diagonalization with overlap
     ethr =  5.57E-08,  avg # of iterations =  2.1

     total cpu time spent up to now is     2172.5 secs

     total energy              =    -216.84264227 Ry
     estimated scf accuracy    <       0.00000379 Ry

     iteration #  6     ecut=    60.00 Ry     beta= 0.30
     Davidson diagonalization with overlap
     ethr =  7.90E-09,  avg # of iterations =  2.6

     total cpu time spent up to now is     2180.0 secs

     total energy              =    -216.84264448 Ry
     estimated scf accuracy    <       0.00000066 Ry

     iteration #  7     ecut=    60.00 Ry     beta= 0.30
     Davidson diagonalization with overlap
     ethr =  1.37E-09,  avg # of iterations =  2.1

     total cpu time spent up to now is     2187.6 secs

     total energy              =    -216.84264546 Ry
     estimated scf accuracy    <       0.00000009 Ry

     iteration #  8     ecut=    60.00 Ry     beta= 0.30
     Davidson diagonalization with overlap
     ethr =  1.77E-10,  avg # of iterations =  3.3

     total cpu time spent up to now is     2195.5 secs

     total energy              =    -216.84264586 Ry
     estimated scf accuracy    <       0.00000004 Ry

     iteration #  9     ecut=    60.00 Ry     beta= 0.30
     Davidson diagonalization with overlap
     ethr =  8.46E-11,  avg # of iterations =  5.0

     total cpu time spent up to now is     2206.0 secs

     total energy              =    -216.84264605 Ry
     estimated scf accuracy    <       0.00000011 Ry

     iteration # 10     ecut=    60.00 Ry     beta= 0.30
     Davidson diagonalization with overlap
     ethr =  8.46E-11,  avg # of iterations =  3.1

     total cpu time spent up to now is     2214.4 secs

     End of self-consistent calculation

     Number of k-points >= 100: set verbosity='high' to print the bands.

     highest occupied level (ev):     3.8905

!    total energy              =    -216.84264624 Ry
     estimated scf accuracy    <          3.1E-09 Ry

     The total energy is the sum of the following terms:
     one-electron contribution =     -87.59795764 Ry
     hartree contribution      =      70.51681719 Ry
     xc contribution           =     -49.54249261 Ry
     ewald contribution        =    -150.21901318 Ry

     convergence has been achieved in  10 iterations

     Forces acting on atoms (cartesian axes, Ry/au):

     atom    1 type  1   force =     0.03801235   -0.01235909   -0.02363519
     atom    2 type  1   force =     0.00555897    0.01300734   -0.01402457
     atom    3 type  1   force =     0.00152365   -0.00648935    0.01244750
     atom    4 type  2   force =    -0.00708860    0.03135822    0.00197848
     atom    5 type  2   force =    -0.00977706    0.06052800   -0.00680046
     atom    6 type  2   force =    -0.00841195   -0.05352624    0.04557955
     atom    7 type  2   force =    -0.00057834   -0.03408970    0.01899759
     atom    8 type  2   force =    -0.01385658   -0.00471956   -0.00246318
     atom    9 type  2   force =    -0.00538244    0.00629037   -0.03207973

     Total force =     0.124298     Total SCF correction =     0.000077


     Computing stress (Cartesian axis) and pressure

          total   stress  (Ry/bohr**3)                   (kbar)     P=       -9.12
  -0.00009512  -0.00009985   0.00004303          -13.99      -14.69        6.33
  -0.00009985  -0.00002786   0.00004383          -14.69       -4.10        6.45
   0.00004303   0.00004383  -0.00006310            6.33        6.45       -9.28

     Energy error            =      2.0E-02 Ry
     Gradient error          =      6.1E-02 Ry/Bohr
     Cell gradient error     =      1.5E+01 kbar

     number of scf cycles    =  16
     number of bfgs steps    =  11

     enthalpy           old  =    -216.8227840723 Ry
     enthalpy           new  =    -216.8426462398 Ry

     CASE: enthalpy          _new < enthalpy          _old

     new trust radius        =       0.1445668432 bohr
     new conv_thr            =       0.0000000100 Ry

     new unit-cell volume =    713.00281 a.u.^3 (   105.65612 Ang^3 )
     density =      2.83294 g/cm^3

CELL_PARAMETERS (angstrom)
   5.012823082   0.236503274  -0.206682432
  -2.316437203   3.697809107   0.462154976
  -0.197331352   0.494575934   5.592945696

ATOMIC_POSITIONS (crystal)
Si               0.4750619632        0.0586752775       -0.0046504534
Si               0.0219255596        0.5055468744        0.6574274701
Si               0.4921096732        0.4540532857        0.3391947296
O                0.2874835344        0.1204481775        0.1877809639
O                0.7666317575        0.3621920415        0.4413701598
O                0.7598971854        0.4379471899        0.8577549755
O                0.6388532340        0.8475224395        0.1618287871
O                0.2683929469        0.4007182742        0.5613375846
O                0.2896441457        0.8128964398        0.7979557826



     Writing config-only to output data dir ./tmp/quartz.save/ :
     XML data file
     NEW-OLD atomic charge density approx. for the potential
     New effective cutoffs (rho, wfc):  684.66   85.95

     total cpu time spent up to now is     2216.5 secs

     Self-consistent Calculation

     iteration #  1     ecut=    60.00 Ry     beta= 0.30
     Davidson diagonalization with overlap
     ethr =  1.00E-06,  avg # of iterations = 10.4

     total cpu time spent up to now is     2239.2 secs

     total energy              =    -216.86143327 Ry
     estimated scf accuracy    <       0.00685576 Ry

     iteration #  2     ecut=    60.00 Ry     beta= 0.30
     Davidson diagonalization with overlap
     ethr =  1.43E-05,  avg # of iterations =  1.0

     total cpu time spent up to now is     2245.4 secs

     total energy              =    -216.86045349 Ry
     estimated scf accuracy    <       0.00237063 Ry

     iteration #  3     ecut=    60.00 Ry     beta= 0.30
     Davidson diagonalization with overlap
     ethr =  4.94E-06,  avg # of iterations =  2.0

     total cpu time spent up to now is     2252.9 secs

     total energy              =    -216.86087406 Ry
     estimated scf accuracy    <       0.00009032 Ry

     iteration #  4     ecut=    60.00 Ry     beta= 0.30
     Davidson diagonalization with overlap
     ethr =  1.88E-07,  avg # of iterations =  3.5

     total cpu time spent up to now is     2260.2 secs

     total energy              =    -216.86088911 Ry
     estimated scf accuracy    <       0.00003218 Ry

     iteration #  5     ecut=    60.00 Ry     beta= 0.30
     Davidson diagonalization with overlap
     ethr =  6.70E-08,  avg # of iterations =  2.0

     total cpu time spent up to now is     2267.0 secs

     total energy              =    -216.86089557 Ry
     estimated scf accuracy    <       0.00000250 Ry

     iteration #  6     ecut=    60.00 Ry     beta= 0.30
     Davidson diagonalization with overlap
     ethr =  5.22E-09,  avg # of iterations =  2.5

     total cpu time spent up to now is     2274.9 secs

     total energy              =    -216.86089770 Ry
     estimated scf accuracy    <       0.00000048 Ry

     iteration #  7     ecut=    60.00 Ry     beta= 0.30
     Davidson diagonalization with overlap
     ethr =  9.93E-10,  avg # of iterations =  2.1

     total cpu time spent up to now is     2282.3 secs

     total energy              =    -216.86089857 Ry
     estimated scf accuracy    <       0.00000007 Ry

     iteration #  8     ecut=    60.00 Ry     beta= 0.30
     Davidson diagonalization with overlap
     ethr =  1.40E-10,  avg # of iterations =  3.4

     total cpu time spent up to now is     2290.8 secs

     total energy              =    -216.86089901 Ry
     estimated scf accuracy    <       0.00000004 Ry

     iteration #  9     ecut=    60.00 Ry     beta= 0.30
     Davidson diagonalization with overlap
     ethr =  8.42E-11,  avg # of iterations =  4.9

     total cpu time spent up to now is     2300.5 secs

     total energy              =    -216.86089923 Ry
     estimated scf accuracy    <       0.00000005 Ry

     iteration # 10     ecut=    60.00 Ry     beta= 0.30
     Davidson diagonalization with overlap
     ethr =  8.42E-11,  avg # of iterations =  2.5

     total cpu time spent up to now is     2307.9 secs

     End of self-consistent calculation

     Number of k-points >= 100: set verbosity='high' to print the bands.

     highest occupied level (ev):     3.6509

!    total energy              =    -216.86089938 Ry
     estimated scf accuracy    <          3.1E-09 Ry

     The total energy is the sum of the following terms:
     one-electron contribution =     -90.54587983 Ry
     hartree contribution      =      71.68224721 Ry
     xc contribution           =     -49.53777159 Ry
     ewald contribution        =    -148.45949517 Ry

     convergence has been achieved in  10 iterations

     Forces acting on atoms (cartesian axes, Ry/au):

     atom    1 type  1   force =     0.04072798   -0.00725035   -0.02743905
     atom    2 type  1   force =     0.00670734    0.01345488    0.00444998
     atom    3 type  1   force =    -0.00229467   -0.01145458    0.00675467
     atom    4 type  2   force =    -0.01747003    0.03291163   -0.00115585
     atom    5 type  2   force =    -0.00356979    0.05962795   -0.00394774
     atom    6 type  2   force =     0.00279839   -0.04994763    0.02853615
     atom    7 type  2   force =     0.00111478   -0.04300086    0.02375125
     atom    8 type  2   force =    -0.01560853   -0.00822700   -0.00790150
     atom    9 type  2   force =    -0.01240546    0.01388595   -0.02304789

     Total force =     0.121855     Total SCF correction =     0.000078


     Computing stress (Cartesian axis) and pressure

          total   stress  (Ry/bohr**3)                   (kbar)     P=      -11.25
  -0.00006866  -0.00010028   0.00011222          -10.10      -14.75       16.51
  -0.00010028  -0.00002600   0.00002765          -14.75       -3.82        4.07
   0.00011222   0.00002765  -0.00013469           16.51        4.07      -19.81

     Energy error            =      1.8E-02 Ry
     Gradient error          =      6.0E-02 Ry/Bohr
     Cell gradient error     =      2.0E+01 kbar

     number of scf cycles    =  17
     number of bfgs steps    =  12

     enthalpy           old  =    -216.8426462398 Ry
     enthalpy           new  =    -216.8608993818 Ry

     CASE: enthalpy          _new < enthalpy          _old

     new trust radius        =       0.2207275957 bohr
     new conv_thr            =       0.0000000100 Ry

     new unit-cell volume =    727.71755 a.u.^3 (   107.83661 Ang^3 )
     density =      2.77565 g/cm^3

CELL_PARAMETERS (angstrom)
   4.994445738   0.161720739  -0.184644549
  -2.376562461   3.800382858   0.408635007
  -0.172211569   0.442663400   5.612042770

ATOMIC_POSITIONS (crystal)
Si               0.4707440349        0.0471715827       -0.0018495150
Si               0.0208334256        0.5084962642        0.6539407871
Si               0.4879923827        0.4588012217        0.3371830075
O                0.2894742617        0.1142680564        0.1932012419
O                0.7707942671        0.3886499055        0.4355293267
O                0.7647440860        0.4189412023        0.8728488733
O                0.6285524814        0.8394430727        0.1623125468
O                0.2672226497        0.3993430873        0.5640716918
O                0.2996424109        0.8248856072        0.7827620398



     Writing config-only to output data dir ./tmp/quartz.save/ :
     XML data file
     NEW-OLD atomic charge density approx. for the potential
     New effective cutoffs (rho, wfc):  641.67   80.52

     total cpu time spent up to now is     2310.0 secs

     Self-consistent Calculation

     iteration #  1     ecut=    60.00 Ry     beta= 0.30
     Davidson diagonalization with overlap
     ethr =  1.00E-06,  avg # of iterations = 11.5

     total cpu time spent up to now is     2334.9 secs

     total energy              =    -216.88721793 Ry
     estimated scf accuracy    <       0.01649928 Ry

     iteration #  2     ecut=    60.00 Ry     beta= 0.30
     Davidson diagonalization with overlap
     ethr =  3.44E-05,  avg # of iterations =  1.0

     total cpu time spent up to now is     2340.4 secs

     total energy              =    -216.88493451 Ry
     estimated scf accuracy    <       0.00560135 Ry

     iteration #  3     ecut=    60.00 Ry     beta= 0.30
     Davidson diagonalization with overlap
     ethr =  1.17E-05,  avg # of iterations =  2.0

     total cpu time spent up to now is     2348.0 secs

     total energy              =    -216.88587217 Ry
     estimated scf accuracy    <       0.00024155 Ry

     iteration #  4     ecut=    60.00 Ry     beta= 0.30
     Davidson diagonalization with overlap
     ethr =  5.03E-07,  avg # of iterations =  3.1

     total cpu time spent up to now is     2354.9 secs

     total energy              =    -216.88590286 Ry
     estimated scf accuracy    <       0.00007340 Ry

     iteration #  5     ecut=    60.00 Ry     beta= 0.30
     Davidson diagonalization with overlap
     ethr =  1.53E-07,  avg # of iterations =  2.0

     total cpu time spent up to now is     2362.8 secs

     total energy              =    -216.88591343 Ry
     estimated scf accuracy    <       0.00000838 Ry

     iteration #  6     ecut=    60.00 Ry     beta= 0.30
     Davidson diagonalization with overlap
     ethr =  1.75E-08,  avg # of iterations =  2.6

     total cpu time spent up to now is     2372.5 secs

     total energy              =    -216.88591680 Ry
     estimated scf accuracy    <       0.00000148 Ry

     iteration #  7     ecut=    60.00 Ry     beta= 0.30
     Davidson diagonalization with overlap
     ethr =  3.09E-09,  avg # of iterations =  2.0

     total cpu time spent up to now is     2380.5 secs

     total energy              =    -216.88591794 Ry
     estimated scf accuracy    <       0.00000018 Ry

     iteration #  8     ecut=    60.00 Ry     beta= 0.30
     Davidson diagonalization with overlap
     ethr =  3.85E-10,  avg # of iterations =  3.2

     total cpu time spent up to now is     2390.5 secs

     total energy              =    -216.88591841 Ry
     estimated scf accuracy    <       0.00000011 Ry

     iteration #  9     ecut=    60.00 Ry     beta= 0.30
     Davidson diagonalization with overlap
     ethr =  2.29E-10,  avg # of iterations =  4.9

     total cpu time spent up to now is     2400.7 secs

     total energy              =    -216.88591865 Ry
     estimated scf accuracy    <       0.00000015 Ry

     iteration # 10     ecut=    60.00 Ry     beta= 0.30
     Davidson diagonalization with overlap
     ethr =  2.29E-10,  avg # of iterations =  2.7

     total cpu time spent up to now is     2408.1 secs

     End of self-consistent calculation

     Number of k-points >= 100: set verbosity='high' to print the bands.

     highest occupied level (ev):     3.2910

!    total energy              =    -216.88591888 Ry
     estimated scf accuracy    <          9.2E-09 Ry

     The total energy is the sum of the following terms:
     one-electron contribution =     -94.55890281 Ry
     hartree contribution      =      73.26329761 Ry
     xc contribution           =     -49.52779622 Ry
     ewald contribution        =    -146.06251746 Ry

     convergence has been achieved in  10 iterations

     Forces acting on atoms (cartesian axes, Ry/au):

     atom    1 type  1   force =     0.04031218   -0.00252537   -0.02857284
     atom    2 type  1   force =     0.00686278    0.01128540    0.02940616
     atom    3 type  1   force =    -0.00417786   -0.02141247   -0.00111143
     atom    4 type  2   force =    -0.02826357    0.03529347   -0.00649395
     atom    5 type  2   force =     0.00804339    0.05693835    0.00246132
     atom    6 type  2   force =     0.02153591   -0.03679414    0.00093739
     atom    7 type  2   force =     0.00030735   -0.05122013    0.02448623
     atom    8 type  2   force =    -0.02101369   -0.01297012   -0.01227667
     atom    9 type  2   force =    -0.02360649    0.02140501   -0.00883620

     Total force =     0.127512     Total SCF correction =     0.000088


     Computing stress (Cartesian axis) and pressure

          total   stress  (Ry/bohr**3)                   (kbar)     P=      -14.81
  -0.00004567  -0.00010794   0.00017905           -6.72      -15.88       26.34
  -0.00010794  -0.00000605  -0.00000348          -15.88       -0.89       -0.51
   0.00017905  -0.00000348  -0.00025028           26.34       -0.51      -36.82

     Energy error            =      2.5E-02 Ry
     Gradient error          =      5.7E-02 Ry/Bohr
     Cell gradient error     =      3.7E+01 kbar

     number of scf cycles    =  18
     number of bfgs steps    =  13

     enthalpy           old  =    -216.8608993818 Ry
     enthalpy           new  =    -216.8859188815 Ry

     CASE: enthalpy          _new < enthalpy          _old

     new trust radius        =       0.3405834725 bohr
     new conv_thr            =       0.0000000100 Ry

     new unit-cell volume =    747.73345 a.u.^3 (   110.80267 Ang^3 )
     density =      2.70135 g/cm^3

CELL_PARAMETERS (angstrom)
   4.962805171   0.041845498  -0.140809441
  -2.471392628   3.970171640   0.321893487
  -0.122333120   0.360623064   5.620513991

ATOMIC_POSITIONS (crystal)
Si               0.4652602443        0.0282884833        0.0017030669
Si               0.0198539441        0.5130543195        0.6499788740
Si               0.4811918778        0.4634516797        0.3343953355
O                0.2940484650        0.1086156714        0.2001515783
O                0.7797009582        0.4323547580        0.4276093382
O                0.7725257209        0.3900875663        0.8947171355
O                0.6106954793        0.8239222255        0.1636975179
O                0.2632115953        0.3963639833        0.5677811005
O                0.3135117150        0.8438613131        0.7599660532



     Writing config-only to output data dir ./tmp/quartz.save/ :
     XML data file
     NEW-OLD atomic charge density approx. for the potential
     New effective cutoffs (rho, wfc):  582.04   73.09

     total cpu time spent up to now is     2410.1 secs

     Self-consistent Calculation

     iteration #  1     ecut=    60.00 Ry     beta= 0.30
     Davidson diagonalization with overlap
     ethr =  1.00E-06,  avg # of iterations = 13.0

     total cpu time spent up to now is     2437.0 secs

     total energy              =    -216.91911802 Ry
     estimated scf accuracy    <       0.04372597 Ry

     iteration #  2     ecut=    60.00 Ry     beta= 0.30
     Davidson diagonalization with overlap
     ethr =  9.11E-05,  avg # of iterations =  1.0

     total cpu time spent up to now is     2442.5 secs

     total energy              =    -216.91352807 Ry
     estimated scf accuracy    <       0.01429764 Ry

     iteration #  3     ecut=    60.00 Ry     beta= 0.30
     Davidson diagonalization with overlap
     ethr =  2.98E-05,  avg # of iterations =  2.0

     total cpu time spent up to now is     2450.0 secs

     total energy              =    -216.91583285 Ry
     estimated scf accuracy    <       0.00079961 Ry

     iteration #  4     ecut=    60.00 Ry     beta= 0.30
     Davidson diagonalization with overlap
     ethr =  1.67E-06,  avg # of iterations =  2.5

     total cpu time spent up to now is     2457.2 secs

     total energy              =    -216.91593572 Ry
     estimated scf accuracy    <       0.00018647 Ry

     iteration #  5     ecut=    60.00 Ry     beta= 0.30
     Davidson diagonalization with overlap
     ethr =  3.88E-07,  avg # of iterations =  2.2

     total cpu time spent up to now is     2464.4 secs

     total energy              =    -216.91595784 Ry
     estimated scf accuracy    <       0.00003310 Ry

     iteration #  6     ecut=    60.00 Ry     beta= 0.30
     Davidson diagonalization with overlap
     ethr =  6.90E-08,  avg # of iterations =  2.4

     total cpu time spent up to now is     2471.8 secs

     total energy              =    -216.91596426 Ry
     estimated scf accuracy    <       0.00000568 Ry

     iteration #  7     ecut=    60.00 Ry     beta= 0.30
     Davidson diagonalization with overlap
     ethr =  1.18E-08,  avg # of iterations =  2.0

     total cpu time spent up to now is     2479.4 secs

     total energy              =    -216.91596611 Ry
     estimated scf accuracy    <       0.00000080 Ry

     iteration #  8     ecut=    60.00 Ry     beta= 0.30
     Davidson diagonalization with overlap
     ethr =  1.67E-09,  avg # of iterations =  3.1

     total cpu time spent up to now is     2487.9 secs

     total energy              =    -216.91596657 Ry
     estimated scf accuracy    <       0.00000064 Ry

     iteration #  9     ecut=    60.00 Ry     beta= 0.30
     Davidson diagonalization with overlap
     ethr =  1.34E-09,  avg # of iterations =  4.1

     total cpu time spent up to now is     2497.1 secs

     total energy              =    -216.91596703 Ry
     estimated scf accuracy    <       0.00000050 Ry

     iteration # 10     ecut=    60.00 Ry     beta= 0.30
     Davidson diagonalization with overlap
     ethr =  1.04E-09,  avg # of iterations =  2.1

     total cpu time spent up to now is     2504.0 secs

     total energy              =    -216.91596720 Ry
     estimated scf accuracy    <       0.00000004 Ry

     iteration # 11     ecut=    60.00 Ry     beta= 0.30
     Davidson diagonalization with overlap
     ethr =  8.14E-11,  avg # of iterations =  4.7

     total cpu time spent up to now is     2513.9 secs

     total energy              =    -216.91596723 Ry
     estimated scf accuracy    <       0.00000002 Ry

     iteration # 12     ecut=    60.00 Ry     beta= 0.30
     Davidson diagonalization with overlap
     ethr =  3.39E-11,  avg # of iterations =  2.1

     total cpu time spent up to now is     2521.1 secs

     End of self-consistent calculation

     Number of k-points >= 100: set verbosity='high' to print the bands.

     highest occupied level (ev):     2.8215

!    total energy              =    -216.91596718 Ry
     estimated scf accuracy    <          1.5E-09 Ry

     The total energy is the sum of the following terms:
     one-electron contribution =     -99.47545209 Ry
     hartree contribution      =      75.16511937 Ry
     xc contribution           =     -49.49576374 Ry
     ewald contribution        =    -143.10987072 Ry

     convergence has been achieved in  12 iterations

     Forces acting on atoms (cartesian axes, Ry/au):

     atom    1 type  1   force =     0.02995261    0.00732540   -0.02704069
     atom    2 type  1   force =     0.00470360    0.00122687    0.06349651
     atom    3 type  1   force =    -0.00729467   -0.03926904   -0.01293895
     atom    4 type  2   force =    -0.03777944    0.03465370   -0.01582253
     atom    5 type  2   force =     0.03513382    0.05000600    0.02066936
     atom    6 type  2   force =     0.05148957   -0.00381048   -0.04831906
     atom    7 type  2   force =    -0.00514223   -0.05652035    0.01667842
     atom    8 type  2   force =    -0.03254418   -0.01764977   -0.01531849
     atom    9 type  2   force =    -0.03851909    0.02403766    0.01859543

     Total force =     0.164478     Total SCF correction =     0.000115


     Computing stress (Cartesian axis) and pressure

          total   stress  (Ry/bohr**3)                   (kbar)     P=      -24.29
  -0.00001112  -0.00011321   0.00024065           -1.64      -16.65       35.40
  -0.00011321   0.00000223  -0.00003591          -16.65        0.33       -5.28
   0.00024065  -0.00003591  -0.00048651           35.40       -5.28      -71.57

     Energy error            =      3.0E-02 Ry
     Gradient error          =      6.3E-02 Ry/Bohr
     Cell gradient error     =      7.2E+01 kbar

     number of scf cycles    =  19
     number of bfgs steps    =  14

     enthalpy           old  =    -216.8859188815 Ry
     enthalpy           new  =    -216.9159671836 Ry

     CASE: enthalpy          _new < enthalpy          _old

     new trust radius        =       0.3935120066 bohr
     new conv_thr            =       0.0000000100 Ry

     new unit-cell volume =    758.22718 a.u.^3 (   112.35768 Ang^3 )
     density =      2.66397 g/cm^3

CELL_PARAMETERS (angstrom)
   4.919548093  -0.076691553  -0.078459284
  -2.557579437   4.154798497   0.244870075
  -0.050022139   0.292685522   5.565560028

ATOMIC_POSITIONS (crystal)
Si               0.4618611797        0.0055767507        0.0022891987
Si               0.0196031109        0.5182331784        0.6484954833
Si               0.4730133312        0.4589527128        0.3342495310
O                0.3054720950        0.1160519036        0.2027139187
O                0.7971615374        0.4839112054        0.4243578024
O                0.7782042861        0.3645522744        0.9127129117
O                0.5890012517        0.8007628503        0.1665138251
O                0.2529103934        0.3915996807        0.5701057072
O                0.3227728144        0.8603594437        0.7385616218



     Writing config-only to output data dir ./tmp/quartz.save/ :
     XML data file
     NEW-OLD atomic charge density approx. for the potential
     New effective cutoffs (rho, wfc):  544.18   68.30

     negative rho (up, down):  2.402E-06 0.000E+00

     total cpu time spent up to now is     2523.2 secs

     Self-consistent Calculation

     iteration #  1     ecut=    60.00 Ry     beta= 0.30
     Davidson diagonalization with overlap
     ethr =  1.00E-06,  avg # of iterations = 13.0

     negative rho (up, down):  3.791E-07 0.000E+00

     total cpu time spent up to now is     2551.3 secs

     total energy              =    -216.94448799 Ry
     estimated scf accuracy    <       0.05128511 Ry

     iteration #  2     ecut=    60.00 Ry     beta= 0.30
     Davidson diagonalization with overlap
     ethr =  1.07E-04,  avg # of iterations =  1.0

     total cpu time spent up to now is     2557.1 secs

     total energy              =    -216.93862425 Ry
     estimated scf accuracy    <       0.01596680 Ry

     iteration #  3     ecut=    60.00 Ry     beta= 0.30
     Davidson diagonalization with overlap
     ethr =  3.33E-05,  avg # of iterations =  2.0

     total cpu time spent up to now is     2564.6 secs

     total energy              =    -216.94117707 Ry
     estimated scf accuracy    <       0.00110535 Ry

     iteration #  4     ecut=    60.00 Ry     beta= 0.30
     Davidson diagonalization with overlap
     ethr =  2.30E-06,  avg # of iterations =  2.0

     total cpu time spent up to now is     2571.9 secs

     total energy              =    -216.94132150 Ry
     estimated scf accuracy    <       0.00021689 Ry

     iteration #  5     ecut=    60.00 Ry     beta= 0.30
     Davidson diagonalization with overlap
     ethr =  4.52E-07,  avg # of iterations =  2.1

     total cpu time spent up to now is     2580.1 secs

     total energy              =    -216.94134655 Ry
     estimated scf accuracy    <       0.00004381 Ry

     iteration #  6     ecut=    60.00 Ry     beta= 0.30
     Davidson diagonalization with overlap
     ethr =  9.13E-08,  avg # of iterations =  2.2

     total cpu time spent up to now is     2587.9 secs

     total energy              =    -216.94135304 Ry
     estimated scf accuracy    <       0.00000761 Ry

     iteration #  7     ecut=    60.00 Ry     beta= 0.30
     Davidson diagonalization with overlap
     ethr =  1.58E-08,  avg # of iterations =  2.0

     total cpu time spent up to now is     2595.8 secs

     total energy              =    -216.94135550 Ry
     estimated scf accuracy    <       0.00000133 Ry

     iteration #  8     ecut=    60.00 Ry     beta= 0.30
     Davidson diagonalization with overlap

===================================================================================
=   BAD TERMINATION OF ONE OF YOUR APPLICATION PROCESSES
=   PID 23639 RUNNING AT my275instance
=   EXIT CODE: 15
=   CLEANING UP REMAINING PROCESSES
=   YOU CAN IGNORE THE BELOW CLEANUP MESSAGES
===================================================================================
YOUR APPLICATION TERMINATED WITH THE EXIT STRING: Terminated (signal 15)
This typically refers to a problem with your application.
Please see the FAQ page for debugging suggestions
