
     Program PWSCF v.7.4.1 starts on 16Nov2025 at 18:37:32 

     This program is part of the open-source Quantum ESPRESSO suite
     for quantum simulation of materials; please cite
         "P. Giannozzi et al., J. Phys.:Condens. Matter 21 395502 (2009);
         "P. Giannozzi et al., J. Phys.:Condens. Matter 29 465901 (2017);
         "P. Giannozzi et al., J. Chem. Phys. 152 154105 (2020);
          URL http://www.quantum-espresso.org", 
     in publications or presentations arising from this work. More details at
     http://www.quantum-espresso.org/quote

     Parallel version (MPI), running on     1 processors

     MPI processes distributed on     1 nodes
     4450 MiB available memory on the printing compute node when the environment starts

     Reading input from quartz/scf/quartz_hex_scf_nk2.in

     Current dimensions of program PWSCF are:
     Max number of different atomic species (ntypx) = 10
     Max number of k-points (npk) =  40000
     Max angular momentum in pseudopotentials (lmaxx) =  4

     IMPORTANT: XC functional enforced from input :
     Exchange-correlation= LDA
                           (   1   1   0   0   0   0   0)
     Any further DFT definition will be discarded
     Please, verify this is what you really want

     Message from routine setup:
     using ibrav=0 with symmetry is DISCOURAGED, use correct ibrav instead

     Subspace diagonalization in iterative solution of the eigenvalue problem:
     a serial algorithm will be used


     G-vector sticks info
     --------------------
     sticks:   dense  smooth     PW     G-vecs:    dense   smooth      PW
     Sum        2857    1417    385               135659    47859    6867

     Using Slab Decomposition



     bravais-lattice index     =            0
     lattice parameter (alat)  =       9.2899  a.u.
     unit-cell volume          =     763.3904 (a.u.)^3
     number of atoms/cell      =            9
     number of atomic types    =            2
     number of electrons       =        48.00
     number of Kohn-Sham states=           24
     kinetic-energy cutoff     =      60.0000  Ry
     charge density cutoff     =     480.0000  Ry
     scf convergence threshold =      1.0E-08
     mixing beta               =       0.3000
     number of iterations used =            8  plain     mixing
     Exchange-correlation= LDA
                           (   1   1   0   0   0   0   0)

     celldm(1)=   9.289894  celldm(2)=   0.000000  celldm(3)=   0.000000
     celldm(4)=   0.000000  celldm(5)=   0.000000  celldm(6)=   0.000000

     crystal axes: (cart. coord. in units of alat)
               a(1) = (   1.000000   0.000000   0.000000 )  
               a(2) = (  -0.500000   0.866025   0.000000 )  
               a(3) = (   0.000000   0.000000   1.099471 )  

     reciprocal axes: (cart. coord. in units 2 pi/alat)
               b(1) = (  1.000000  0.577350 -0.000000 )  
               b(2) = (  0.000000  1.154701  0.000000 )  
               b(3) = (  0.000000 -0.000000  0.909528 )  


     PseudoPot. # 1 for Si read from file:
     ./pseudos/Si.pz-vbc.UPF
     MD5 check sum: 9f25e6ff280f3123e9b3a84715b2e9c9
     Pseudo is Norm-conserving, Zval =  4.0
     Generated by new atomic code, or converted to UPF format
     Using radial grid of  431 points,  2 beta functions with: 
                l(1) =   0
                l(2) =   1

     PseudoPot. # 2 for O  read from file:
     ./pseudos/O.pz-van_ak.UPF
     MD5 check sum: b77f3d8cfe972ebbeca95ec6abb46c7c
     Pseudo is Ultrasoft, Zval =  6.0
     Generated by new atomic code, or converted to UPF format
     Using radial grid of  737 points,  4 beta functions with: 
                l(1) =   0
                l(2) =   0
                l(3) =   1
                l(4) =   1
     Q(r) pseudized with  8 coefficients,  rinner =    0.800   0.800   0.800


     atomic species   valence    mass     pseudopotential
     Si                4.00    28.08550     Si( 1.00)
     O                 6.00    15.99940     O ( 1.00)

      6 Sym. Ops. (no inversion) found ( 4 have fractional translation)



   Cartesian axes

     site n.     atom                  positions (alat units)
         1        Si     tau(   1) = (   0.2680813   0.4643297   0.0000000  )
         2        Si     tau(   2) = (   0.4638394   0.0000000   0.3664910  )
         3        Si     tau(   3) = (  -0.2319187   0.4016955   0.7329801  )
         4        O      tau(   4) = (   0.0716140   0.3554925   0.8553916  )
         5        O      tau(   5) = (   0.1563290   0.7502988   0.1224095  )
         6        O      tau(   6) = (  -0.2279430   0.6262612   0.4889006  )
         7        O      tau(   7) = (   0.2720570   0.2397640   0.2440795  )
         8        O      tau(   8) = (   0.5716140   0.5105348   0.9770616  )
         9        O      tau(   9) = (   0.6563290   0.1157264   0.6105706  )

     number of k points=     3
                       cart. coord. in units 2pi/alat
        k(    1) = (   0.2500000   0.4330127   0.2273821), wk =   1.0000000
        k(    2) = (   0.2500000  -0.1443376   0.2273821), wk =   0.5000000
        k(    3) = (  -0.2500000  -0.1443376  -0.2273821), wk =   0.5000000

     Dense  grid:   135659 G-vectors     FFT dimensions: (  72,  72,  72)

     Smooth grid:    47859 G-vectors     FFT dimensions: (  45,  45,  54)

     Estimated max dynamical RAM per process >     202.20 MB

     Initial potential from superposition of free atoms

     starting charge      47.9985, renormalised to      48.0000
     Starting wfcs are   36 randomized atomic wfcs

     total cpu time spent up to now is        2.0 secs

     Self-consistent Calculation

     iteration #  1     ecut=    60.00 Ry     beta= 0.30
     Davidson diagonalization with overlap
     ethr =  1.00E-02,  avg # of iterations =  2.0

     total cpu time spent up to now is        3.4 secs

     total energy              =    -216.71494060 Ry
     estimated scf accuracy    <       2.28311172 Ry

     iteration #  2     ecut=    60.00 Ry     beta= 0.30
     Davidson diagonalization with overlap
     ethr =  4.76E-03,  avg # of iterations =  2.0

     total cpu time spent up to now is        4.7 secs

     total energy              =    -216.93023267 Ry
     estimated scf accuracy    <       0.25488269 Ry

     iteration #  3     ecut=    60.00 Ry     beta= 0.30
     Davidson diagonalization with overlap
     ethr =  5.31E-04,  avg # of iterations =  3.0

     total cpu time spent up to now is        6.2 secs

     total energy              =    -217.01642096 Ry
     estimated scf accuracy    <       0.08255403 Ry

     iteration #  4     ecut=    60.00 Ry     beta= 0.30
     Davidson diagonalization with overlap
     ethr =  1.72E-04,  avg # of iterations =  4.0

     total cpu time spent up to now is        7.8 secs

     total energy              =    -217.00039933 Ry
     estimated scf accuracy    <       0.20648612 Ry

     iteration #  5     ecut=    60.00 Ry     beta= 0.30
     Davidson diagonalization with overlap
     ethr =  1.72E-04,  avg # of iterations =  3.0

     total cpu time spent up to now is        9.2 secs

     total energy              =    -217.03883379 Ry
     estimated scf accuracy    <       0.00098070 Ry

     iteration #  6     ecut=    60.00 Ry     beta= 0.30
     Davidson diagonalization with overlap
     ethr =  2.04E-06,  avg # of iterations =  5.3

     total cpu time spent up to now is       11.0 secs

     total energy              =    -217.04056357 Ry
     estimated scf accuracy    <       0.00009012 Ry

     iteration #  7     ecut=    60.00 Ry     beta= 0.30
     Davidson diagonalization with overlap
     ethr =  1.88E-07,  avg # of iterations =  3.0

     total cpu time spent up to now is       12.4 secs

     total energy              =    -217.04061074 Ry
     estimated scf accuracy    <       0.00003719 Ry

     iteration #  8     ecut=    60.00 Ry     beta= 0.30
     Davidson diagonalization with overlap
     ethr =  7.75E-08,  avg # of iterations =  4.0

     total cpu time spent up to now is       14.1 secs

     total energy              =    -217.04059091 Ry
     estimated scf accuracy    <       0.00030671 Ry

     iteration #  9     ecut=    60.00 Ry     beta= 0.30
     Davidson diagonalization with overlap
     ethr =  7.75E-08,  avg # of iterations =  3.0

     total cpu time spent up to now is       15.5 secs

     total energy              =    -217.04059456 Ry
     estimated scf accuracy    <       0.00008055 Ry

     iteration # 10     ecut=    60.00 Ry     beta= 0.30
     Davidson diagonalization with overlap
     ethr =  7.75E-08,  avg # of iterations =  1.0

     total cpu time spent up to now is       16.5 secs

     total energy              =    -217.04059045 Ry
     estimated scf accuracy    <       0.00004022 Ry

     iteration # 11     ecut=    60.00 Ry     beta= 0.30
     Davidson diagonalization with overlap
     ethr =  7.75E-08,  avg # of iterations =  1.0

     total cpu time spent up to now is       17.5 secs

     total energy              =    -217.04058146 Ry
     estimated scf accuracy    <       0.00002117 Ry

     iteration # 12     ecut=    60.00 Ry     beta= 0.30
     Davidson diagonalization with overlap
     ethr =  4.41E-08,  avg # of iterations =  3.0

     total cpu time spent up to now is       18.9 secs

     total energy              =    -217.04058836 Ry
     estimated scf accuracy    <       0.00000010 Ry

     iteration # 13     ecut=    60.00 Ry     beta= 0.30
     Davidson diagonalization with overlap
     ethr =  2.01E-10,  avg # of iterations =  7.7

     total cpu time spent up to now is       21.2 secs

     total energy              =    -217.04058787 Ry
     estimated scf accuracy    <       0.00000408 Ry

     iteration # 14     ecut=    60.00 Ry     beta= 0.30
     Davidson diagonalization with overlap
     ethr =  2.01E-10,  avg # of iterations =  5.0

     total cpu time spent up to now is       23.3 secs

     total energy              =    -217.04058833 Ry
     estimated scf accuracy    <       0.00000013 Ry

     iteration # 15     ecut=    60.00 Ry     beta= 0.30
     Davidson diagonalization with overlap
     ethr =  2.01E-10,  avg # of iterations =  4.0

     total cpu time spent up to now is       25.1 secs

     total energy              =    -217.04058826 Ry
     estimated scf accuracy    <       0.00000048 Ry

     iteration # 16     ecut=    60.00 Ry     beta= 0.30
     Davidson diagonalization with overlap
     ethr =  2.01E-10,  avg # of iterations =  4.0

     total cpu time spent up to now is       26.7 secs

     total energy              =    -217.04058839 Ry
     estimated scf accuracy    <       0.00000003 Ry

     iteration # 17     ecut=    60.00 Ry     beta= 0.30
     Davidson diagonalization with overlap
     ethr =  6.53E-11,  avg # of iterations =  2.0

     total cpu time spent up to now is       27.8 secs

     total energy              =    -217.04058839 Ry
     estimated scf accuracy    <       0.00000001 Ry

     iteration # 18     ecut=    60.00 Ry     beta= 0.30
     Davidson diagonalization with overlap
     ethr =  3.04E-11,  avg # of iterations =  2.0

     total cpu time spent up to now is       29.0 secs

     End of self-consistent calculation

          k = 0.2500 0.4330 0.2274 (  5981 PWs)   bands (ev):

   -16.2903 -15.8233 -15.2872 -14.6991 -14.6739 -14.6210  -5.9623  -4.8874
    -4.0446  -3.0759  -2.7925  -2.5031  -0.9378  -0.6441  -0.4212   0.0670
     0.3308   0.5400   0.9305   1.0599   1.2968   1.5817   1.8416   2.0970

          k = 0.2500-0.1443 0.2274 (  5998 PWs)   bands (ev):

   -16.5408 -15.8153 -15.0125 -14.6730 -14.6445 -14.5998  -6.3210  -4.9313
    -3.6583  -3.1335  -2.8589  -2.6811  -0.9549  -0.4426  -0.3052   0.0213
     0.3525   0.6910   0.8241   1.0523   1.2750   1.4446   1.9877   2.1152

          k =-0.2500-0.1443-0.2274 (  5998 PWs)   bands (ev):

   -16.5437 -15.8012 -15.0457 -14.6692 -14.6196 -14.6059  -6.3230  -4.9378
    -3.6581  -3.1573  -2.8832  -2.5963  -0.9084  -0.3925  -0.3658  -0.1252
     0.3022   0.7805   0.8955   1.0335   1.3460   1.3676   1.8816   2.2186

     highest occupied level (ev):     2.2186

!    total energy              =    -217.04058839 Ry
     estimated scf accuracy    <          1.4E-10 Ry

     The total energy is the sum of the following terms:
     one-electron contribution =    -101.80585875 Ry
     hartree contribution      =      75.55550495 Ry
     xc contribution           =     -49.62571240 Ry
     ewald contribution        =    -141.16452219 Ry

     convergence has been achieved in  18 iterations

     Writing all to output data dir ./tmp_quartz_hex/quartz_hex.save/ :
     XML data file, charge density, pseudopotentials, collected wavefunctions

     init_run     :      1.76s CPU      1.92s WALL (       1 calls)
     electrons    :     26.06s CPU     27.06s WALL (       1 calls)

     Called by init_run:
     wfcinit      :      0.60s CPU      0.62s WALL (       1 calls)
     potinit      :      0.29s CPU      0.31s WALL (       1 calls)
     hinit0       :      0.71s CPU      0.73s WALL (       1 calls)

     Called by electrons:
     c_bands      :     19.46s CPU     19.56s WALL (      18 calls)
     sum_band     :      3.91s CPU      4.36s WALL (      18 calls)
     v_of_rho     :      0.54s CPU      0.56s WALL (      19 calls)
     newd         :      1.62s CPU      2.13s WALL (      19 calls)
     mix_rho      :      0.41s CPU      0.43s WALL (      18 calls)

     Called by c_bands:
     init_us_2    :      0.34s CPU      0.34s WALL (     111 calls)
     cegterg      :     18.94s CPU     19.04s WALL (      54 calls)

     Called by *egterg:
     cdiaghg      :      0.17s CPU      0.18s WALL (     231 calls)
     h_psi        :     16.59s CPU     16.69s WALL (     234 calls)
     s_psi        :      0.49s CPU      0.49s WALL (     234 calls)
     g_psi        :      0.09s CPU      0.09s WALL (     177 calls)

     Called by h_psi:
     h_psi:calbec :      0.54s CPU      0.54s WALL (     234 calls)
     vloc_psi     :     15.49s CPU     15.58s WALL (     234 calls)
     add_vuspsi   :      0.49s CPU      0.49s WALL (     234 calls)

     General routines
     calbec       :      0.68s CPU      0.68s WALL (     288 calls)
     fft          :      1.06s CPU      1.07s WALL (     111 calls)
     ffts         :      0.26s CPU      0.26s WALL (      37 calls)
     fftw         :     12.14s CPU     12.21s WALL (   10778 calls)
     interpolate  :      0.35s CPU      0.36s WALL (      19 calls)

     Parallel routines

     PWSCF        :     27.89s CPU     29.09s WALL


   This run was terminated on:  18:38: 2  16Nov2025            

=------------------------------------------------------------------------------=
   JOB DONE.
=------------------------------------------------------------------------------=
