
     Program PWSCF v.7.4.1 starts on 13Nov2025 at 18:18:26 

     This program is part of the open-source Quantum ESPRESSO suite
     for quantum simulation of materials; please cite
         "P. Giannozzi et al., J. Phys.:Condens. Matter 21 395502 (2009);
         "P. Giannozzi et al., J. Phys.:Condens. Matter 29 465901 (2017);
         "P. Giannozzi et al., J. Chem. Phys. 152 154105 (2020);
          URL http://www.quantum-espresso.org", 
     in publications or presentations arising from this work. More details at
     http://www.quantum-espresso.org/quote

     Parallel version (MPI), running on     1 processors

     MPI processes distributed on     1 nodes
     5332 MiB available memory on the printing compute node when the environment starts

     Reading input from quartz/scf/quartz_scf_nk4.in

     Current dimensions of program PWSCF are:
     Max number of different atomic species (ntypx) = 10
     Max number of k-points (npk) =  40000
     Max angular momentum in pseudopotentials (lmaxx) =  4

     IMPORTANT: XC functional enforced from input :
     Exchange-correlation= LDA
                           (   1   1   0   0   0   0   0)
     Any further DFT definition will be discarded
     Please, verify this is what you really want


     Subspace diagonalization in iterative solution of the eigenvalue problem:
     a serial algorithm will be used


     G-vector sticks info
     --------------------
     sticks:   dense  smooth     PW     G-vecs:    dense   smooth      PW
     Sum        2773    1375    401               134717    47547    7421

     Using Slab Decomposition



     bravais-lattice index     =            0
     lattice parameter (alat)  =       9.2989  a.u.
     unit-cell volume          =     758.2272 (a.u.)^3
     number of atoms/cell      =            9
     number of atomic types    =            2
     number of electrons       =        48.00
     number of Kohn-Sham states=           24
     kinetic-energy cutoff     =      60.0000  Ry
     charge density cutoff     =     480.0000  Ry
     scf convergence threshold =      1.0E-08
     mixing beta               =       0.3000
     number of iterations used =            8  plain     mixing
     Exchange-correlation= LDA
                           (   1   1   0   0   0   0   0)

     celldm(1)=   9.298910  celldm(2)=   0.000000  celldm(3)=   0.000000
     celldm(4)=   0.000000  celldm(5)=   0.000000  celldm(6)=   0.000000

     crystal axes: (cart. coord. in units of alat)
               a(1) = (   0.999751  -0.015585  -0.015945 )  
               a(2) = (  -0.519752   0.844339   0.049763 )  
               a(3) = (  -0.010166   0.059480   1.131034 )  

     reciprocal axes: (cart. coord. in units 2 pi/alat)
               b(1) = (  1.009581  0.622866 -0.023682 )  
               b(2) = (  0.017688  1.198953 -0.062892 )  
               b(3) = (  0.013454 -0.043970  0.886580 )  


     PseudoPot. # 1 for Si read from file:
     ./pseudos/Si.pz-vbc.UPF
     MD5 check sum: 9f25e6ff280f3123e9b3a84715b2e9c9
     Pseudo is Norm-conserving, Zval =  4.0
     Generated by new atomic code, or converted to UPF format
     Using radial grid of  431 points,  2 beta functions with: 
                l(1) =   0
                l(2) =   1

     PseudoPot. # 2 for O  read from file:
     ./pseudos/O.pz-van_ak.UPF
     MD5 check sum: b77f3d8cfe972ebbeca95ec6abb46c7c
     Pseudo is Ultrasoft, Zval =  6.0
     Generated by new atomic code, or converted to UPF format
     Using radial grid of  737 points,  4 beta functions with: 
                l(1) =   0
                l(2) =   0
                l(3) =   1
                l(4) =   1
     Q(r) pseudized with  8 coefficients,  rinner =    0.800   0.800   0.800


     atomic species   valence    mass     pseudopotential
     Si                4.00    28.08550     Si( 1.00)
     O                 6.00    15.99940     O ( 1.00)

     No symmetry found



   Cartesian axes

     site n.     atom                  positions (alat units)
         1        Si     tau(   1) = (   0.4588246  -0.0023534  -0.0044975  )
         2        Si     tau(   2) = (  -0.2563466   0.4758311   0.7589465  )
         3        Si     tau(   3) = (   0.2309565   0.4000206   0.3933443  )
         4        O      tau(   4) = (   0.2430173   0.1052836   0.2301808  )
         5        O      tau(   5) = (   0.5411359   0.4214017   0.4913334  )
         6        O      tau(   6) = (   0.5792560   0.3499649   1.0380424  )
         7        O      tau(   7) = (   0.1709643   0.6768396   0.2187895  )
         8        O      tau(   8) = (   0.0435175   0.3606108   0.6602634  )
         9        O      tau(   9) = (  -0.1319886   0.7653338   0.8730056  )

     number of k points=    32
                       cart. coord. in units 2pi/alat
        k(    1) = (   0.1300903   0.2222311   0.1000007), wk =   0.0625000
        k(    2) = (   0.1334539   0.2112386   0.3216457), wk =   0.0625000
        k(    3) = (   0.1233633   0.2442162  -0.3432892), wk =   0.0625000
        k(    4) = (   0.1267268   0.2332237  -0.1216443), wk =   0.0625000
        k(    5) = (   0.1345122   0.5219695   0.0842776), wk =   0.0625000
        k(    6) = (   0.1378758   0.5109769   0.3059226), wk =   0.0625000
        k(    7) = (   0.1277852   0.5439545  -0.3590124), wk =   0.0625000
        k(    8) = (   0.1311487   0.5329620  -0.1373674), wk =   0.0625000
        k(    9) = (   0.1212465  -0.3772455   0.1314469), wk =   0.0625000
        k(   10) = (   0.1246101  -0.3882380   0.3530919), wk =   0.0625000
        k(   11) = (   0.1145195  -0.3552605  -0.3118430), wk =   0.0625000
        k(   12) = (   0.1178830  -0.3662530  -0.0901981), wk =   0.0625000
        k(   13) = (   0.1256684  -0.0775072   0.1157238), wk =   0.0625000
        k(   14) = (   0.1290320  -0.0884997   0.3373688), wk =   0.0625000
        k(   15) = (   0.1189414  -0.0555221  -0.3275661), wk =   0.0625000
        k(   16) = (   0.1223049  -0.0665147  -0.1059212), wk =   0.0625000
        k(   17) = (   0.3824856   0.3779476   0.0940803), wk =   0.0625000
        k(   18) = (   0.3858491   0.3669551   0.3157252), wk =   0.0625000
        k(   19) = (   0.3757585   0.3999327  -0.3492097), wk =   0.0625000
        k(   20) = (   0.3791220   0.3889401  -0.1275647), wk =   0.0625000
        k(   21) = (   0.3869075   0.6776859   0.0783572), wk =   0.0625000
        k(   22) = (   0.3902710   0.6666934   0.3000021), wk =   0.0625000
        k(   23) = (   0.3801804   0.6996710  -0.3649328), wk =   0.0625000
        k(   24) = (   0.3835439   0.6886785  -0.1432878), wk =   0.0625000
        k(   25) = (   0.3736418  -0.2215290   0.1255265), wk =   0.0625000
        k(   26) = (   0.3770053  -0.2325216   0.3471715), wk =   0.0625000
        k(   27) = (   0.3669147  -0.1995440  -0.3177635), wk =   0.0625000
        k(   28) = (   0.3702782  -0.2105365  -0.0961185), wk =   0.0625000
        k(   29) = (   0.3780637   0.0782093   0.1098034), wk =   0.0625000
        k(   30) = (   0.3814272   0.0672168   0.3314484), wk =   0.0625000
        k(   31) = (   0.3713366   0.1001943  -0.3334866), wk =   0.0625000
        k(   32) = (   0.3747001   0.0892018  -0.1118416), wk =   0.0625000

     Dense  grid:   134717 G-vectors     FFT dimensions: (  72,  72,  75)

     Smooth grid:    47547 G-vectors     FFT dimensions: (  45,  45,  54)

     Estimated max dynamical RAM per process >     265.25 MB

     Initial potential from superposition of free atoms

     starting charge      47.9985, renormalised to      48.0000
     Starting wfcs are   36 randomized atomic wfcs

     total cpu time spent up to now is        3.8 secs

     Self-consistent Calculation

     iteration #  1     ecut=    60.00 Ry     beta= 0.30
     Davidson diagonalization with overlap
     ethr =  1.00E-02,  avg # of iterations =  2.0

     total cpu time spent up to now is        9.7 secs

     total energy              =    -216.60316322 Ry
     estimated scf accuracy    <       2.34969450 Ry

     iteration #  2     ecut=    60.00 Ry     beta= 0.30
     Davidson diagonalization with overlap
     ethr =  4.90E-03,  avg # of iterations =  2.0

     total cpu time spent up to now is       15.1 secs

     total energy              =    -216.82482651 Ry
     estimated scf accuracy    <       0.26256800 Ry

     iteration #  3     ecut=    60.00 Ry     beta= 0.30
     Davidson diagonalization with overlap
     ethr =  5.47E-04,  avg # of iterations =  3.0

     total cpu time spent up to now is       22.2 secs

     total energy              =    -216.90954092 Ry
     estimated scf accuracy    <       0.09534399 Ry

     iteration #  4     ecut=    60.00 Ry     beta= 0.30
     Davidson diagonalization with overlap
     ethr =  1.99E-04,  avg # of iterations =  3.0

     total cpu time spent up to now is       29.2 secs

     total energy              =    -216.91046372 Ry
     estimated scf accuracy    <       0.16840628 Ry

     iteration #  5     ecut=    60.00 Ry     beta= 0.30
     Davidson diagonalization with overlap
     ethr =  1.99E-04,  avg # of iterations =  2.0

     total cpu time spent up to now is       34.9 secs

     total energy              =    -216.93802266 Ry
     estimated scf accuracy    <       0.00270286 Ry

     iteration #  6     ecut=    60.00 Ry     beta= 0.30
     Davidson diagonalization with overlap
     ethr =  5.63E-06,  avg # of iterations =  5.0

     total cpu time spent up to now is       43.2 secs

     total energy              =    -216.94168384 Ry
     estimated scf accuracy    <       0.00219868 Ry

     iteration #  7     ecut=    60.00 Ry     beta= 0.30
     Davidson diagonalization with overlap
     ethr =  4.58E-06,  avg # of iterations =  1.0

     total cpu time spent up to now is       47.2 secs

     total energy              =    -216.94156482 Ry
     estimated scf accuracy    <       0.00076777 Ry

     iteration #  8     ecut=    60.00 Ry     beta= 0.30
     Davidson diagonalization with overlap
     ethr =  1.60E-06,  avg # of iterations =  1.7

     total cpu time spent up to now is       51.4 secs

     total energy              =    -216.94150431 Ry
     estimated scf accuracy    <       0.00022484 Ry

     iteration #  9     ecut=    60.00 Ry     beta= 0.30
     Davidson diagonalization with overlap
     ethr =  4.68E-07,  avg # of iterations =  2.0

     total cpu time spent up to now is       56.9 secs

     total energy              =    -216.94158270 Ry
     estimated scf accuracy    <       0.00000459 Ry

     iteration # 10     ecut=    60.00 Ry     beta= 0.30
     Davidson diagonalization with overlap
     ethr =  9.56E-09,  avg # of iterations =  4.7

     total cpu time spent up to now is       65.1 secs

     total energy              =    -216.94158520 Ry
     estimated scf accuracy    <       0.00003513 Ry

     iteration # 11     ecut=    60.00 Ry     beta= 0.30
     Davidson diagonalization with overlap
     ethr =  9.56E-09,  avg # of iterations =  1.4

     total cpu time spent up to now is       69.3 secs

     total energy              =    -216.94157365 Ry
     estimated scf accuracy    <       0.00002338 Ry

     iteration # 12     ecut=    60.00 Ry     beta= 0.30
     Davidson diagonalization with overlap
     ethr =  9.56E-09,  avg # of iterations =  4.0

     total cpu time spent up to now is       76.8 secs

     total energy              =    -216.94157888 Ry
     estimated scf accuracy    <       0.00000013 Ry

     iteration # 13     ecut=    60.00 Ry     beta= 0.30
     Davidson diagonalization with overlap
     ethr =  2.80E-10,  avg # of iterations =  4.9

     total cpu time spent up to now is       84.1 secs

     total energy              =    -216.94157898 Ry
     estimated scf accuracy    <       0.00000005 Ry

     iteration # 14     ecut=    60.00 Ry     beta= 0.30
     Davidson diagonalization with overlap
     ethr =  1.09E-10,  avg # of iterations =  2.0

     total cpu time spent up to now is       89.0 secs

     total energy              =    -216.94157899 Ry
     estimated scf accuracy    <       0.00000006 Ry

     iteration # 15     ecut=    60.00 Ry     beta= 0.30
     Davidson diagonalization with overlap
     ethr =  1.09E-10,  avg # of iterations =  1.0

     total cpu time spent up to now is       93.1 secs

     total energy              =    -216.94157900 Ry
     estimated scf accuracy    <       0.00000005 Ry

     iteration # 16     ecut=    60.00 Ry     beta= 0.30
     Davidson diagonalization with overlap
     ethr =  9.52E-11,  avg # of iterations =  2.0

     total cpu time spent up to now is       98.8 secs

     End of self-consistent calculation

          k = 0.1301 0.2222 0.1000 (  5957 PWs)   bands (ev):

   -16.5034 -15.3676 -14.8056 -14.5995 -14.2835 -13.9404  -6.0219  -4.8377
    -3.2944  -2.7599  -2.5886  -2.2295  -0.8089  -0.3078  -0.1647   0.0291
     0.6318   1.0070   1.1901   1.3917   1.7900   1.9306   2.2509   2.5979

          k = 0.1335 0.2112 0.3216 (  5962 PWs)   bands (ev):

   -16.3303 -15.7376 -14.7253 -14.5075 -14.2666 -13.9285  -6.3112  -4.1485
    -3.5044  -2.9135  -2.6366  -2.1619  -0.7138  -0.2687  -0.1797   0.1298
     0.3124   1.0707   1.3343   1.4421   1.5426   1.9363   2.1587   2.5634

          k = 0.1234 0.2442-0.3433 (  5956 PWs)   bands (ev):

   -16.3213 -15.7236 -14.8412 -14.4147 -14.3090 -13.8826  -6.2743  -4.2288
    -3.5369  -2.8588  -2.6074  -2.2296  -0.6861  -0.3694  -0.0787   0.1899
     0.3979   0.9484   1.3001   1.3608   1.6961   1.9237   2.2914   2.4013

          k = 0.1267 0.2332-0.1216 (  5946 PWs)   bands (ev):

   -16.4973 -15.2893 -15.0136 -14.4700 -14.3323 -13.8942  -5.9596  -4.9174
    -3.3448  -2.7447  -2.5294  -2.2893  -0.7485  -0.4383  -0.1879   0.2077
     0.7412   0.9522   1.1038   1.3902   1.7656   2.0406   2.2376   2.5122

          k = 0.1345 0.5220 0.0843 (  5959 PWs)   bands (ev):

   -16.2078 -15.5286 -14.8661 -14.5710 -14.3828 -14.0870  -5.8896  -4.5629
    -3.4716  -2.7876  -2.6578  -2.2149  -0.6809  -0.2209  -0.0571   0.1089
     0.5822   0.9284   1.0957   1.3977   1.6678   1.8508   2.3244   2.4307

          k = 0.1379 0.5110 0.3059 (  5973 PWs)   bands (ev):

   -16.1513 -15.5126 -14.9479 -14.6310 -14.4061 -14.0180  -5.8493  -4.3756
    -3.5503  -2.9372  -2.5271  -2.2576  -0.7863  -0.4642   0.0490   0.3745
     0.4939   0.8592   1.1944   1.4802   1.6556   1.8697   2.2386   2.3721

          k = 0.1278 0.5440-0.3590 (  5952 PWs)   bands (ev):

   -16.1476 -15.4611 -15.0804 -14.5829 -14.3850 -14.0069  -5.8054  -4.5211
    -3.5380  -2.8682  -2.4815  -2.2434  -0.7894  -0.5555   0.1154   0.3548
     0.4800   0.9048   1.2478   1.4440   1.6687   1.7986   2.3015   2.3234

          k = 0.1311 0.5330-0.1374 (  5943 PWs)   bands (ev):

   -16.2037 -15.4950 -14.9778 -14.5345 -14.3572 -14.0719  -5.8515  -4.6610
    -3.5114  -2.7700  -2.5224  -2.2368  -0.6868  -0.3320   0.0093   0.1221
     0.5240   1.0379   1.1577   1.4317   1.5884   1.7584   2.3390   2.4431

          k = 0.1212-0.3772 0.1314 (  5947 PWs)   bands (ev):

   -16.3371 -15.4531 -14.9415 -14.5689 -14.3594 -13.9079  -5.8635  -4.7996
    -3.2842  -2.9607  -2.5412  -2.2636  -0.7929  -0.5161   0.0401   0.2833
     0.7273   0.9386   1.1438   1.2965   1.8022   1.9104   2.3041   2.3941

          k = 0.1246-0.3882 0.3531 (  5955 PWs)   bands (ev):

   -16.2099 -15.6595 -14.8751 -14.5252 -14.4567 -13.8560  -5.9797  -4.2956
    -3.6737  -2.8639  -2.4697  -2.3373  -0.8418  -0.6259   0.0962   0.2359
     0.6815   0.9793   1.1474   1.4568   1.7755   1.9441   2.1992   2.3523

          k = 0.1145-0.3553-0.3118 (  5962 PWs)   bands (ev):

   -16.2309 -15.6352 -14.8815 -14.5365 -14.3943 -13.9054  -5.9731  -4.5375
    -3.3927  -2.8454  -2.4727  -2.3065  -0.9700  -0.4321   0.0686   0.2195
     0.5454   1.0272   1.1903   1.5088   1.6710   1.8557   2.1800   2.4232

          k = 0.1179-0.3663-0.0902 (  5945 PWs)   bands (ev):

   -16.3506 -15.4333 -14.9536 -14.5675 -14.2838 -13.9806  -5.8394  -4.9491
    -3.2032  -2.7994  -2.5397  -2.2927  -0.8939  -0.3432   0.0299   0.2638
     0.5655   0.9539   1.2348   1.3570   1.5844   1.9147   2.3176   2.4386

          k = 0.1257-0.0775 0.1157 (  5957 PWs)   bands (ev):

   -16.5806 -15.3749 -14.8431 -14.5990 -14.2500 -13.7737  -6.0278  -4.9967
    -3.2240  -2.7980  -2.5239  -2.2742  -0.8378  -0.6023  -0.2127   0.2361
     0.7575   1.0151   1.1176   1.3847   1.8996   2.1214   2.2830   2.4813

          k = 0.1290-0.0885 0.3374 (  5947 PWs)   bands (ev):

   -16.3740 -15.8375 -14.7086 -14.4399 -14.2997 -13.7487  -6.4119  -4.0814
    -3.6781  -2.8431  -2.5451  -2.2805  -0.8113  -0.4530  -0.0516   0.3039
     0.4635   0.9203   1.1865   1.3406   1.7961   1.9940   2.2033   2.5212

          k = 0.1189-0.0555-0.3276 (  5939 PWs)   bands (ev):

   -16.3918 -15.8027 -14.7597 -14.4357 -14.2478 -13.7709  -6.3949  -4.3769
    -3.2778  -2.9650  -2.4951  -2.2741  -0.8270  -0.4293  -0.0905   0.2487
     0.4936   0.9935   1.1724   1.4641   1.6540   1.9622   2.1394   2.5531

          k = 0.1223-0.0665-0.1059 (  5952 PWs)   bands (ev):

   -16.5885 -15.3090 -14.9571 -14.5551 -14.2136 -13.7985  -5.9704  -5.1499
    -3.0839  -2.8064  -2.4864  -2.2912  -0.9340  -0.4244  -0.2219   0.0760
     0.7621   1.0185   1.2291   1.4604   1.8093   2.0222   2.2224   2.5447

          k = 0.3825 0.3779 0.0941 (  5967 PWs)   bands (ev):

   -16.1323 -15.6369 -14.8787 -14.5571 -14.3727 -14.0770  -5.7089  -4.5847
    -3.7229  -2.8352  -2.3986  -2.1944  -0.5353  -0.3306  -0.1665   0.1782
     0.2513   0.9383   1.0209   1.4286   1.7192   1.9455   2.1649   2.5675

          k = 0.3858 0.3670 0.3157 (  5972 PWs)   bands (ev):

   -16.0265 -15.6423 -15.1251 -14.4722 -14.3616 -14.0446  -5.6949  -4.5278
    -3.5684  -2.8830  -2.6206  -2.1017  -0.5077  -0.4262  -0.1765   0.1066
     0.4904   0.8703   1.1525   1.4854   1.7714   1.8596   2.0493   2.3813

          k = 0.3758 0.3999-0.3492 (  5963 PWs)   bands (ev):

   -16.0377 -15.5328 -15.2766 -14.4552 -14.3359 -14.0306  -5.6457  -4.6637
    -3.5703  -2.7733  -2.5990  -2.1172  -0.5930  -0.4842  -0.0630   0.1567
     0.4957   0.8927   1.1513   1.3882   1.6678   1.9270   2.1202   2.3674

          k = 0.3791 0.3889-0.1276 (  5941 PWs)   bands (ev):

   -16.1358 -15.5813 -15.0228 -14.4859 -14.3649 -14.0606  -5.6663  -4.6979
    -3.7269  -2.7421  -2.4087  -2.1788  -0.5767  -0.4538  -0.0281   0.2043
     0.3222   0.8712   1.0285   1.4160   1.6287   1.9660   2.2013   2.5749

          k = 0.3869 0.6777 0.0784 (  5925 PWs)   bands (ev):

   -15.9661 -15.7828 -15.0425 -14.6074 -14.3034 -13.9458  -5.6724  -4.4791
    -3.8215  -2.8848  -2.4585  -2.1625  -0.7518  -0.4084  -0.2074   0.2306
     0.7387   0.9901   1.0712   1.3597   1.5987   2.0219   2.1428   2.4176

          k = 0.3903 0.6667 0.3000 (  5945 PWs)   bands (ev):

   -15.9631 -15.6111 -15.2555 -14.5460 -14.4246 -13.8759  -5.3514  -4.7470
    -3.7896  -2.8047  -2.5287  -2.2547  -0.7225  -0.5888  -0.0477   0.2991
     0.6828   0.8460   1.1758   1.5845   1.6897   1.8937   2.1175   2.2581

          k = 0.3802 0.6997-0.3649 (  5944 PWs)   bands (ev):

   -15.9400 -15.6458 -15.2643 -14.5003 -14.4378 -13.8860  -5.2915  -4.9010
    -3.7773  -2.6525  -2.5074  -2.2900  -0.7878  -0.5022  -0.0864   0.3355
     0.5784   0.8644   1.2869   1.3947   1.6834   1.9559   2.1141   2.2945

          k = 0.3835 0.6887-0.1433 (  5930 PWs)   bands (ev):

   -15.9229 -15.8320 -15.0640 -14.5709 -14.2964 -13.9598  -5.6665  -4.5698
    -3.8372  -2.7360  -2.4029  -2.2147  -0.7726  -0.3582  -0.2242   0.2325
     0.7075   0.8637   1.0925   1.5019   1.5704   1.8523   2.2436   2.4420

          k = 0.3736-0.2215 0.1255 (  5928 PWs)   bands (ev):

   -16.2109 -15.6058 -15.0559 -14.6067 -14.2849 -13.8077  -5.6657  -4.8096
    -3.5577  -2.9727  -2.4115  -2.1556  -0.6571  -0.5232  -0.1984  -0.0194
     0.7594   0.9903   1.1282   1.4332   1.8404   1.9530   2.0996   2.4727

          k = 0.3770-0.2325 0.3472 (  5924 PWs)   bands (ev):

   -16.0368 -15.7830 -15.1103 -14.5213 -14.3903 -13.7485  -5.6747  -4.4220
    -3.9567  -2.7289  -2.4933  -2.2786  -0.8380  -0.5750  -0.0512   0.2027
     0.6697   1.0209   1.1690   1.3183   1.9053   1.9527   2.1471   2.2836

          k = 0.3669-0.1995-0.3178 (  5940 PWs)   bands (ev):

   -16.0872 -15.6983 -15.1531 -14.5339 -14.3539 -13.7646  -5.5919  -4.7586
    -3.6931  -2.7157  -2.4781  -2.2665  -0.9012  -0.5433   0.0191   0.2021
     0.6211   1.0066   1.2230   1.3972   1.6654   2.0437   2.1196   2.2767

          k = 0.3703-0.2105-0.0961 (  5933 PWs)   bands (ev):

   -16.2313 -15.5467 -15.1077 -14.6062 -14.2488 -13.8320  -5.5445  -5.0608
    -3.4367  -2.9318  -2.4012  -2.1411  -0.7798  -0.4417  -0.1854   0.0502
     0.7220   0.9813   1.1201   1.4945   1.7389   1.9150   2.1203   2.4629

          k = 0.3781 0.0782 0.1098 (  5953 PWs)   bands (ev):

   -16.2971 -15.5233 -14.9285 -14.6105 -14.2909 -13.9294  -5.7098  -4.8437
    -3.5401  -2.8424  -2.3642  -2.2277  -0.7553  -0.4397  -0.0627   0.1817
     0.3351   0.9032   1.1438   1.4467   1.7248   1.9746   2.2474   2.5501

          k = 0.3814 0.0672 0.3314 (  5955 PWs)   bands (ev):

   -16.1010 -15.7759 -15.0206 -14.4547 -14.3379 -13.8982  -5.8901  -4.3709
    -3.6946  -2.8449  -2.5598  -2.1510  -0.7027  -0.2962  -0.1183   0.1013
     0.4172   0.8477   1.1534   1.4092   1.6973   2.0045   2.2238   2.3813

          k = 0.3713 0.1002-0.3335 (  5957 PWs)   bands (ev):

   -16.1364 -15.6904 -15.1057 -14.4407 -14.3106 -13.9048  -5.8124  -4.6348
    -3.4651  -2.7421  -2.7175  -2.1521  -0.6531  -0.4187   0.0462   0.1037
     0.3122   0.8884   1.2493   1.5077   1.7299   1.8064   2.1324   2.3975

          k = 0.3747 0.0892-0.1118 (  5944 PWs)   bands (ev):

   -16.3091 -15.4340 -15.0720 -14.5585 -14.2665 -13.9397  -5.5309  -5.1317
    -3.4099  -2.8161  -2.4330  -2.2034  -0.7947  -0.4075  -0.0506   0.2003
     0.2890   0.9841   1.2277   1.4405   1.7708   1.8887   2.1284   2.5404

     highest occupied level (ev):     2.5979

!    total energy              =    -216.94157898 Ry
     estimated scf accuracy    <          2.6E-10 Ry

     The total energy is the sum of the following terms:
     one-electron contribution =    -102.56075592 Ry
     hartree contribution      =      76.37110761 Ry
     xc contribution           =     -49.50975763 Ry
     ewald contribution        =    -141.24217304 Ry

     convergence has been achieved in  16 iterations

     Writing all to output data dir ./tmp/quartz.save/ :
     XML data file, charge density, pseudopotentials, collected wavefunctions

     init_run     :      3.61s CPU      3.76s WALL (       1 calls)
     electrons    :     94.28s CPU     94.95s WALL (       1 calls)

     Called by init_run:
     wfcinit      :      2.75s CPU      2.82s WALL (       1 calls)
     potinit      :      0.22s CPU      0.24s WALL (       1 calls)
     hinit0       :      0.52s CPU      0.55s WALL (       1 calls)

     Called by electrons:
     c_bands      :     81.01s CPU     81.34s WALL (      16 calls)
     sum_band     :     11.69s CPU     11.89s WALL (      16 calls)
     v_of_rho     :      0.31s CPU      0.33s WALL (      17 calls)
     newd         :      1.06s CPU      1.19s WALL (      17 calls)
     mix_rho      :      0.18s CPU      0.18s WALL (      16 calls)

     Called by c_bands:
     init_us_2    :      1.72s CPU      1.74s WALL (    1056 calls)
     cegterg      :     77.98s CPU     78.29s WALL (     512 calls)

     Called by *egterg:
     cdiaghg      :      0.99s CPU      1.02s WALL (    1847 calls)
     h_psi        :     65.54s CPU     65.84s WALL (    1879 calls)
     s_psi        :      2.76s CPU      2.77s WALL (    1879 calls)
     g_psi        :      0.57s CPU      0.57s WALL (    1335 calls)

     Called by h_psi:
     h_psi:calbec :      3.17s CPU      3.19s WALL (    1879 calls)
     vloc_psi     :     59.28s CPU     59.54s WALL (    1879 calls)
     add_vuspsi   :      2.81s CPU      2.82s WALL (    1879 calls)

     General routines
     calbec       :      4.13s CPU      4.16s WALL (    2391 calls)
     fft          :      0.68s CPU      0.70s WALL (      99 calls)
     ffts         :      0.19s CPU      0.20s WALL (      33 calls)
     fftw         :     54.06s CPU     54.28s WALL (   89846 calls)
     interpolate  :      0.24s CPU      0.25s WALL (      17 calls)

     Parallel routines

     PWSCF        :   1m37.97s CPU   1m38.97s WALL


   This run was terminated on:  18:20: 5  13Nov2025            

=------------------------------------------------------------------------------=
   JOB DONE.
=------------------------------------------------------------------------------=
