
     Program PWSCF v.7.4.1 starts on 16Nov2025 at 18:40:10 

     This program is part of the open-source Quantum ESPRESSO suite
     for quantum simulation of materials; please cite
         "P. Giannozzi et al., J. Phys.:Condens. Matter 21 395502 (2009);
         "P. Giannozzi et al., J. Phys.:Condens. Matter 29 465901 (2017);
         "P. Giannozzi et al., J. Chem. Phys. 152 154105 (2020);
          URL http://www.quantum-espresso.org", 
     in publications or presentations arising from this work. More details at
     http://www.quantum-espresso.org/quote

     Parallel version (MPI), running on     1 processors

     MPI processes distributed on     1 nodes
     4453 MiB available memory on the printing compute node when the environment starts

     Reading input from quartz/scf/quartz_hex_scf_nk6.in

     Current dimensions of program PWSCF are:
     Max number of different atomic species (ntypx) = 10
     Max number of k-points (npk) =  40000
     Max angular momentum in pseudopotentials (lmaxx) =  4

     IMPORTANT: XC functional enforced from input :
     Exchange-correlation= LDA
                           (   1   1   0   0   0   0   0)
     Any further DFT definition will be discarded
     Please, verify this is what you really want

     Message from routine setup:
     using ibrav=0 with symmetry is DISCOURAGED, use correct ibrav instead

     Subspace diagonalization in iterative solution of the eigenvalue problem:
     a serial algorithm will be used


     G-vector sticks info
     --------------------
     sticks:   dense  smooth     PW     G-vecs:    dense   smooth      PW
     Sum        2857    1417    421               135659    47859    7659

     Using Slab Decomposition



     bravais-lattice index     =            0
     lattice parameter (alat)  =       9.2899  a.u.
     unit-cell volume          =     763.3904 (a.u.)^3
     number of atoms/cell      =            9
     number of atomic types    =            2
     number of electrons       =        48.00
     number of Kohn-Sham states=           24
     kinetic-energy cutoff     =      60.0000  Ry
     charge density cutoff     =     480.0000  Ry
     scf convergence threshold =      1.0E-08
     mixing beta               =       0.3000
     number of iterations used =            8  plain     mixing
     Exchange-correlation= LDA
                           (   1   1   0   0   0   0   0)

     celldm(1)=   9.289894  celldm(2)=   0.000000  celldm(3)=   0.000000
     celldm(4)=   0.000000  celldm(5)=   0.000000  celldm(6)=   0.000000

     crystal axes: (cart. coord. in units of alat)
               a(1) = (   1.000000   0.000000   0.000000 )  
               a(2) = (  -0.500000   0.866025   0.000000 )  
               a(3) = (   0.000000   0.000000   1.099471 )  

     reciprocal axes: (cart. coord. in units 2 pi/alat)
               b(1) = (  1.000000  0.577350 -0.000000 )  
               b(2) = (  0.000000  1.154701  0.000000 )  
               b(3) = (  0.000000 -0.000000  0.909528 )  


     PseudoPot. # 1 for Si read from file:
     ./pseudos/Si.pz-vbc.UPF
     MD5 check sum: 9f25e6ff280f3123e9b3a84715b2e9c9
     Pseudo is Norm-conserving, Zval =  4.0
     Generated by new atomic code, or converted to UPF format
     Using radial grid of  431 points,  2 beta functions with: 
                l(1) =   0
                l(2) =   1

     PseudoPot. # 2 for O  read from file:
     ./pseudos/O.pz-van_ak.UPF
     MD5 check sum: b77f3d8cfe972ebbeca95ec6abb46c7c
     Pseudo is Ultrasoft, Zval =  6.0
     Generated by new atomic code, or converted to UPF format
     Using radial grid of  737 points,  4 beta functions with: 
                l(1) =   0
                l(2) =   0
                l(3) =   1
                l(4) =   1
     Q(r) pseudized with  8 coefficients,  rinner =    0.800   0.800   0.800


     atomic species   valence    mass     pseudopotential
     Si                4.00    28.08550     Si( 1.00)
     O                 6.00    15.99940     O ( 1.00)

      6 Sym. Ops. (no inversion) found ( 4 have fractional translation)



   Cartesian axes

     site n.     atom                  positions (alat units)
         1        Si     tau(   1) = (   0.2680813   0.4643297   0.0000000  )
         2        Si     tau(   2) = (   0.4638394   0.0000000   0.3664910  )
         3        Si     tau(   3) = (  -0.2319187   0.4016955   0.7329801  )
         4        O      tau(   4) = (   0.0716140   0.3554925   0.8553916  )
         5        O      tau(   5) = (   0.1563290   0.7502988   0.1224095  )
         6        O      tau(   6) = (  -0.2279430   0.6262612   0.4889006  )
         7        O      tau(   7) = (   0.2720570   0.2397640   0.2440795  )
         8        O      tau(   8) = (   0.5716140   0.5105348   0.9770616  )
         9        O      tau(   9) = (   0.6563290   0.1157264   0.6105706  )

     number of k points=    63
                       cart. coord. in units 2pi/alat
        k(    1) = (   0.0833333   0.1443376   0.0757940), wk =   0.0370370
        k(    2) = (   0.0833333   0.1443376   0.2273821), wk =   0.0370370
        k(    3) = (   0.0833333   0.1443376   0.3789701), wk =   0.0370370
        k(    4) = (   0.0833333   0.3367877   0.0757940), wk =   0.0370370
        k(    5) = (   0.0833333   0.3367877   0.2273821), wk =   0.0370370
        k(    6) = (   0.0833333   0.3367877   0.3789701), wk =   0.0370370
        k(    7) = (   0.0833333   0.5292377   0.0757940), wk =   0.0370370
        k(    8) = (   0.0833333   0.5292377   0.2273821), wk =   0.0370370
        k(    9) = (   0.0833333   0.5292377   0.3789701), wk =   0.0370370
        k(   10) = (   0.0833333  -0.4330127   0.0757940), wk =   0.0370370
        k(   11) = (   0.0833333  -0.4330127   0.2273821), wk =   0.0370370
        k(   12) = (   0.0833333  -0.4330127   0.3789701), wk =   0.0370370
        k(   13) = (   0.0833333  -0.2405626   0.0757940), wk =   0.0370370
        k(   14) = (   0.0833333  -0.2405626   0.2273821), wk =   0.0370370
        k(   15) = (   0.0833333  -0.2405626   0.3789701), wk =   0.0370370
        k(   16) = (   0.0833333  -0.0481125   0.0757940), wk =   0.0185185
        k(   17) = (   0.0833333  -0.0481125   0.2273821), wk =   0.0185185
        k(   18) = (   0.0833333  -0.0481125   0.3789701), wk =   0.0185185
        k(   19) = (   0.2500000   0.4330127   0.0757940), wk =   0.0370370
        k(   20) = (   0.2500000   0.4330127   0.2273821), wk =   0.0370370
        k(   21) = (   0.2500000   0.4330127   0.3789701), wk =   0.0370370
        k(   22) = (   0.2500000   0.6254628   0.0757940), wk =   0.0370370
        k(   23) = (   0.2500000   0.6254628   0.2273821), wk =   0.0370370
        k(   24) = (   0.2500000   0.6254628   0.3789701), wk =   0.0370370
        k(   25) = (   0.2500000  -0.3367877   0.0757940), wk =   0.0370370
        k(   26) = (   0.2500000  -0.3367877   0.2273821), wk =   0.0370370
        k(   27) = (   0.2500000  -0.3367877   0.3789701), wk =   0.0370370
        k(   28) = (   0.2500000  -0.1443376   0.0757940), wk =   0.0185185
        k(   29) = (   0.2500000  -0.1443376   0.2273821), wk =   0.0185185
        k(   30) = (   0.2500000  -0.1443376   0.3789701), wk =   0.0185185
        k(   31) = (   0.4166667   0.7216878   0.0757940), wk =   0.0370370
        k(   32) = (   0.4166667   0.7216878   0.2273821), wk =   0.0370370
        k(   33) = (   0.4166667   0.7216878   0.3789701), wk =   0.0370370
        k(   34) = (   0.4166667  -0.2405626   0.0757940), wk =   0.0185185
        k(   35) = (   0.4166667  -0.2405626   0.2273821), wk =   0.0185185
        k(   36) = (   0.4166667  -0.2405626   0.3789701), wk =   0.0185185
        k(   37) = (  -0.0833333   0.3367877  -0.0757940), wk =   0.0370370
        k(   38) = (  -0.0833333   0.3367877  -0.2273821), wk =   0.0370370
        k(   39) = (  -0.0833333   0.3367877  -0.3789701), wk =   0.0370370
        k(   40) = (  -0.0833333   0.5292377  -0.0757940), wk =   0.0370370
        k(   41) = (  -0.0833333   0.5292377  -0.2273821), wk =   0.0370370
        k(   42) = (  -0.0833333   0.5292377  -0.3789701), wk =   0.0370370
        k(   43) = (  -0.0833333  -0.4330127  -0.0757940), wk =   0.0370370
        k(   44) = (  -0.0833333  -0.4330127  -0.2273821), wk =   0.0370370
        k(   45) = (  -0.0833333  -0.4330127  -0.3789701), wk =   0.0370370
        k(   46) = (  -0.0833333  -0.2405626  -0.0757940), wk =   0.0370370
        k(   47) = (  -0.0833333  -0.2405626  -0.2273821), wk =   0.0370370
        k(   48) = (  -0.0833333  -0.2405626  -0.3789701), wk =   0.0370370
        k(   49) = (  -0.0833333  -0.0481125  -0.0757940), wk =   0.0185185
        k(   50) = (  -0.0833333  -0.0481125  -0.2273821), wk =   0.0185185
        k(   51) = (  -0.0833333  -0.0481125  -0.3789701), wk =   0.0185185
        k(   52) = (  -0.2500000   0.6254628  -0.0757940), wk =   0.0370370
        k(   53) = (  -0.2500000   0.6254628  -0.2273821), wk =   0.0370370
        k(   54) = (  -0.2500000   0.6254628  -0.3789701), wk =   0.0370370
        k(   55) = (  -0.2500000  -0.3367877  -0.0757940), wk =   0.0370370
        k(   56) = (  -0.2500000  -0.3367877  -0.2273821), wk =   0.0370370
        k(   57) = (  -0.2500000  -0.3367877  -0.3789701), wk =   0.0370370
        k(   58) = (  -0.2500000  -0.1443376  -0.0757940), wk =   0.0185185
        k(   59) = (  -0.2500000  -0.1443376  -0.2273821), wk =   0.0185185
        k(   60) = (  -0.2500000  -0.1443376  -0.3789701), wk =   0.0185185
        k(   61) = (  -0.4166667  -0.2405626  -0.0757940), wk =   0.0185185
        k(   62) = (  -0.4166667  -0.2405626  -0.2273821), wk =   0.0185185
        k(   63) = (  -0.4166667  -0.2405626  -0.3789701), wk =   0.0185185

     Dense  grid:   135659 G-vectors     FFT dimensions: (  72,  72,  72)

     Smooth grid:    47859 G-vectors     FFT dimensions: (  45,  45,  54)

     Estimated max dynamical RAM per process >     333.84 MB

     Initial potential from superposition of free atoms

     starting charge      47.9985, renormalised to      48.0000
     Starting wfcs are   36 randomized atomic wfcs

     total cpu time spent up to now is       11.4 secs

     Self-consistent Calculation

     iteration #  1     ecut=    60.00 Ry     beta= 0.30
     Davidson diagonalization with overlap
     ethr =  1.00E-02,  avg # of iterations =  2.0

     total cpu time spent up to now is       33.3 secs

     total energy              =    -216.71443179 Ry
     estimated scf accuracy    <       2.28387056 Ry

     iteration #  2     ecut=    60.00 Ry     beta= 0.30
     Davidson diagonalization with overlap
     ethr =  4.76E-03,  avg # of iterations =  2.0

     total cpu time spent up to now is       53.2 secs

     total energy              =    -216.92889040 Ry
     estimated scf accuracy    <       0.25575710 Ry

     iteration #  3     ecut=    60.00 Ry     beta= 0.30
     Davidson diagonalization with overlap
     ethr =  5.33E-04,  avg # of iterations =  3.0

     total cpu time spent up to now is       80.2 secs

     total energy              =    -217.01554441 Ry
     estimated scf accuracy    <       0.08376787 Ry

     iteration #  4     ecut=    60.00 Ry     beta= 0.30
     Davidson diagonalization with overlap
     ethr =  1.75E-04,  avg # of iterations =  4.0

     total cpu time spent up to now is      108.0 secs

     total energy              =    -216.99872035 Ry
     estimated scf accuracy    <       0.21035204 Ry

     iteration #  5     ecut=    60.00 Ry     beta= 0.30
     Davidson diagonalization with overlap
     ethr =  1.75E-04,  avg # of iterations =  3.0

     total cpu time spent up to now is      133.2 secs

     total energy              =    -217.03918687 Ry
     estimated scf accuracy    <       0.00034654 Ry

     iteration #  6     ecut=    60.00 Ry     beta= 0.30
     Davidson diagonalization with overlap
     ethr =  7.22E-07,  avg # of iterations =  5.9

     total cpu time spent up to now is      169.9 secs

     total energy              =    -217.04046211 Ry
     estimated scf accuracy    <       0.00007979 Ry

     iteration #  7     ecut=    60.00 Ry     beta= 0.30
     Davidson diagonalization with overlap
     ethr =  1.66E-07,  avg # of iterations =  2.1

     total cpu time spent up to now is      191.5 secs

     total energy              =    -217.04045436 Ry
     estimated scf accuracy    <       0.00007214 Ry

     iteration #  8     ecut=    60.00 Ry     beta= 0.30
     Davidson diagonalization with overlap
     ethr =  1.50E-07,  avg # of iterations =  4.0

     total cpu time spent up to now is      219.0 secs

     total energy              =    -217.04046376 Ry
     estimated scf accuracy    <       0.00021053 Ry

     iteration #  9     ecut=    60.00 Ry     beta= 0.30
     Davidson diagonalization with overlap
     ethr =  1.50E-07,  avg # of iterations =  2.0

     total cpu time spent up to now is      240.0 secs

     total energy              =    -217.04046759 Ry
     estimated scf accuracy    <       0.00004840 Ry

     iteration # 10     ecut=    60.00 Ry     beta= 0.30
     Davidson diagonalization with overlap
     ethr =  1.01E-07,  avg # of iterations =  2.0

     total cpu time spent up to now is      256.1 secs

     total energy              =    -217.04046764 Ry
     estimated scf accuracy    <       0.00001675 Ry

     iteration # 11     ecut=    60.00 Ry     beta= 0.30
     Davidson diagonalization with overlap
     ethr =  3.49E-08,  avg # of iterations =  2.0

     total cpu time spent up to now is      275.4 secs

     total energy              =    -217.04046874 Ry
     estimated scf accuracy    <       0.00000570 Ry

     iteration # 12     ecut=    60.00 Ry     beta= 0.30
     Davidson diagonalization with overlap
     ethr =  1.19E-08,  avg # of iterations =  2.0

     total cpu time spent up to now is      294.2 secs

     total energy              =    -217.04046843 Ry
     estimated scf accuracy    <       0.00000165 Ry

     iteration # 13     ecut=    60.00 Ry     beta= 0.30
     Davidson diagonalization with overlap
     ethr =  3.44E-09,  avg # of iterations =  2.9

     total cpu time spent up to now is      317.1 secs

     End of self-consistent calculation

          k = 0.0833 0.1443 0.0758 (  6001 PWs)   bands (ev):

   -16.7567 -15.4773 -15.1443 -14.6436 -14.6164 -14.5898  -6.1049  -5.5149
    -3.2594  -3.1227  -2.9876  -2.8067  -0.8229  -0.6008  -0.3412  -0.0266
     0.5851   0.8317   0.8780   1.0990   1.2727   1.3799   1.9538   2.1023

          k = 0.0833 0.1443 0.2274 (  6010 PWs)   bands (ev):

   -16.6501 -15.8256 -14.8926 -14.6439 -14.6137 -14.5917  -6.5232  -4.8971
    -3.5197  -3.1782  -3.0306  -2.6100  -0.8544  -0.4319  -0.2884   0.0214
     0.4011   0.7233   0.8584   0.9280   1.2093   1.5011   1.9852   2.1804

          k = 0.0833 0.1443 0.3790 (  6010 PWs)   bands (ev):

   -16.4469 -16.1595 -14.7428 -14.6514 -14.6164 -14.5901  -6.7504  -4.3143
    -3.8385  -3.2130  -3.1545  -2.4415  -0.7136  -0.4433  -0.3205   0.1002
     0.2859   0.6192   0.7250   0.9265   1.0759   1.7559   1.9972   2.1406

          k = 0.0833 0.3368 0.0758 (  5996 PWs)   bands (ev):

   -16.5627 -15.6080 -15.2108 -14.6847 -14.6467 -14.6035  -6.0272  -5.2991
    -3.4625  -3.1301  -3.0051  -2.5762  -0.9285  -0.5374  -0.3009   0.0773
     0.1953   0.7234   0.7723   1.1004   1.2790   1.4290   2.0139   2.1440

          k = 0.0833 0.3368 0.2274 (  5991 PWs)   bands (ev):

   -16.4751 -15.8116 -15.0917 -14.6857 -14.6514 -14.6063  -6.2111  -4.9419
    -3.7443  -3.1109  -2.8146  -2.6612  -0.9728  -0.4909  -0.3151  -0.0033
     0.3415   0.6708   0.8291   1.1048   1.2949   1.4320   1.9590   2.1092

          k = 0.0833 0.3368 0.3790 (  5999 PWs)   bands (ev):

   -16.3267 -16.0331 -15.0200 -14.6935 -14.6424 -14.6111  -6.3284  -4.5731
    -4.0111  -3.0828  -2.8979  -2.5585  -0.9069  -0.7103  -0.1829  -0.0008
     0.3133   0.7216   0.8778   1.0907   1.2215   1.6099   1.8438   2.0558

          k = 0.0833 0.5292 0.0758 (  5976 PWs)   bands (ev):

   -16.3227 -15.8383 -15.2381 -14.6990 -14.6575 -14.6234  -6.0266  -5.0137
    -3.7042  -3.1203  -3.0230  -2.3403  -0.8690  -0.6262  -0.4336   0.0106
     0.2114   0.5552   0.6783   1.1128   1.3023   1.5599   1.9744   2.1940

          k = 0.0833 0.5292 0.2274 (  5993 PWs)   bands (ev):

   -16.2865 -15.8313 -15.2844 -14.7091 -14.6660 -14.6181  -5.9557  -4.9641
    -3.9175  -3.0971  -2.8144  -2.5050  -0.9405  -0.7477  -0.2985   0.0163
     0.3856   0.5108   0.8471   1.0947   1.3644   1.5415   1.8453   2.1110

          k = 0.0833 0.5292 0.3790 (  5973 PWs)   bands (ev):

   -16.2480 -15.8195 -15.3397 -14.7266 -14.6550 -14.6228  -5.8790  -4.9178
    -4.0760  -3.0269  -2.7093  -2.6635  -0.9753  -0.8668  -0.2002   0.1219
     0.3291   0.6377   1.0134   1.1607   1.3060   1.5659   1.6326   2.0573

          k = 0.0833-0.4330 0.0758 (  5993 PWs)   bands (ev):

   -16.4338 -15.7176 -15.2476 -14.6917 -14.6503 -14.6151  -6.0241  -5.1355
    -3.6096  -3.1440  -2.9944  -2.4132  -0.8649  -0.5410  -0.4325  -0.1172
     0.2782   0.5887   0.8085   1.0940   1.2546   1.5598   1.9328   2.2100

          k = 0.0833-0.4330 0.2274 (  5985 PWs)   bands (ev):

   -16.3717 -15.7951 -15.2411 -14.6920 -14.6543 -14.6140  -6.0542  -4.9655
    -3.8473  -3.1251  -2.7988  -2.5232  -0.9198  -0.6632  -0.3184  -0.1223
     0.3410   0.6735   0.8973   1.1268   1.2466   1.5657   1.7803   2.1820

          k = 0.0833-0.4330 0.3790 (  5989 PWs)   bands (ev):

   -16.2802 -15.9123 -15.2127 -14.7083 -14.6477 -14.6193  -6.0730  -4.7690
    -4.0495  -3.0620  -2.7807  -2.5888  -0.9463  -0.8269  -0.1670   0.0076
     0.2848   0.7594   0.9672   1.1753   1.3344   1.3775   1.7655   2.0915

          k = 0.0833-0.2406 0.0758 (  5994 PWs)   bands (ev):

   -16.6763 -15.5129 -15.1920 -14.6654 -14.6288 -14.5939  -6.0551  -5.4393
    -3.3412  -3.1388  -2.9835  -2.7034  -0.8602  -0.5890  -0.3150   0.0214
     0.3599   0.7951   0.8837   1.0852   1.2792   1.3860   1.9526   2.1526

          k = 0.0833-0.2406 0.2274 (  6002 PWs)   bands (ev):

   -16.5772 -15.8101 -14.9934 -14.6633 -14.6215 -14.6007  -6.3836  -4.9232
    -3.6267  -3.1518  -2.9213  -2.6150  -0.9029  -0.4129  -0.3195  -0.0622
     0.3147   0.7588   0.8827   1.0055   1.3003   1.4114   1.9206   2.2001

          k = 0.0833-0.2406 0.3790 (  6003 PWs)   bands (ev):

   -16.3930 -16.1075 -14.8689 -14.6685 -14.6203 -14.6050  -6.5690  -4.4232
    -3.9291  -3.1480  -3.0355  -2.4769  -0.8127  -0.5750  -0.2541   0.0231
     0.2631   0.7046   0.8350   1.0078   1.1419   1.6605   1.9196   2.1270

          k = 0.0833-0.0481 0.0758 (  6002 PWs)   bands (ev):

   -16.7984 -15.4648 -15.1169 -14.6245 -14.6082 -14.5910  -6.1454  -5.5414
    -3.2238  -3.1182  -3.0097  -2.8288  -0.7864  -0.5989  -0.3630  -0.0889
     0.7389   0.8254   0.8830   1.1131   1.2548   1.4014   1.9552   2.0643

          k = 0.0833-0.0481 0.2274 (  6004 PWs)   bands (ev):

   -16.6886 -15.8342 -14.8437 -14.6258 -14.6101 -14.5866  -6.6011  -4.8809
    -3.4454  -3.2023  -3.1096  -2.5939  -0.8102  -0.4311  -0.3047   0.0446
     0.5011   0.7007   0.8330   0.8802   1.1571   1.5452   2.0343   2.1584

          k = 0.0833-0.0481 0.3790 (  6003 PWs)   bands (ev):

   -16.4779 -16.1839 -14.6836 -14.6311 -14.6166 -14.5810  -6.8479  -4.2593
    -3.7686  -3.2648  -3.2262  -2.4215  -0.6420  -0.3713  -0.3506   0.1510
     0.3340   0.5331   0.6526   0.8744   1.0339   1.7992   2.0411   2.1559

          k = 0.2500 0.4330 0.0758 (  5989 PWs)   bands (ev):

   -16.3312 -15.8132 -15.2634 -14.6943 -14.6579 -14.6192  -6.0462  -4.9104
    -3.8984  -3.1033  -2.9356  -2.3405  -0.8318  -0.5970  -0.5030   0.0726
     0.1772   0.5519   0.7774   0.9782   1.2526   1.6446   1.9366   2.2160

          k = 0.2500 0.4330 0.2274 (  5981 PWs)   bands (ev):

   -16.2904 -15.8235 -15.2874 -14.6993 -14.6741 -14.6212  -5.9622  -4.8874
    -4.0446  -3.0759  -2.7925  -2.5032  -0.9379  -0.6443  -0.4213   0.0668
     0.3306   0.5398   0.9303   1.0596   1.2965   1.5814   1.8413   2.0967

          k = 0.2500 0.4330 0.3790 (  5961 PWs)   bands (ev):

   -16.2421 -15.8429 -15.3096 -14.7146 -14.6646 -14.6386  -5.8674  -4.8766
    -4.1640  -2.9758  -2.7661  -2.6457  -0.9881  -0.7512  -0.2996   0.0983
     0.3800   0.5688   1.0782   1.2210   1.3423   1.4803   1.7468   1.9249

          k = 0.2500 0.6255 0.0758 (  6002 PWs)   bands (ev):

   -16.2111 -15.9313 -15.2738 -14.6949 -14.6580 -14.6267  -6.0571  -4.7060
    -4.1090  -3.0758  -2.9421  -2.2686  -0.7750  -0.6477  -0.5786   0.1245
     0.2216   0.4609   0.6926   1.0193   1.2158   1.7368   1.8956   2.2271

          k = 0.2500 0.6255 0.2274 (  5983 PWs)   bands (ev):

   -16.2170 -15.8489 -15.3388 -14.7006 -14.6850 -14.6253  -5.8943  -4.8283
    -4.1710  -3.0649  -2.7966  -2.4593  -0.9267  -0.6610  -0.4712   0.1559
     0.3221   0.4535   0.9626   1.0128   1.3011   1.6742   1.7890   2.0751

          k = 0.2500 0.6255 0.3790 (  5953 PWs)   bands (ev):

   -16.2191 -15.7397 -15.4360 -14.7229 -14.6726 -14.6448  -5.6581  -5.0419
    -4.2043  -2.9518  -2.7288  -2.6814  -1.0112  -0.6923  -0.4006   0.2182
     0.3665   0.4829   1.1443   1.2520   1.3442   1.5236   1.6808   1.8688

          k = 0.2500-0.3368 0.0758 (  5996 PWs)   bands (ev):

   -16.4574 -15.6961 -15.2405 -14.6915 -14.6543 -14.6104  -6.0320  -5.1297
    -3.6605  -3.1285  -2.9541  -2.4575  -0.8936  -0.5699  -0.3508   0.0203
     0.1692   0.6531   0.7997   1.0115   1.2884   1.5194   1.9805   2.1872

          k = 0.2500-0.3368 0.2274 (  5988 PWs)   bands (ev):

   -16.3866 -15.8108 -15.1942 -14.6949 -14.6607 -14.6143  -6.0794  -4.9320
    -3.8827  -3.0910  -2.7955  -2.5842  -0.9642  -0.5680  -0.3635   0.0058
     0.3318   0.6232   0.8726   1.1116   1.3020   1.4747   1.9039   2.1100

          k = 0.2500-0.3368 0.3790 (  5990 PWs)   bands (ev):

   -16.2812 -15.9500 -15.1590 -14.7045 -14.6515 -14.6267  -6.1128  -4.7070
    -4.0919  -3.0212  -2.8260  -2.6020  -0.9512  -0.7639  -0.1953  -0.0034
     0.3547   0.6630   0.9817   1.1590   1.2789   1.5382   1.7947   2.0002

          k = 0.2500-0.1443 0.0758 (  6011 PWs)   bands (ev):

   -16.6373 -15.5512 -15.1874 -14.6747 -14.6380 -14.5982  -6.0389  -5.3986
    -3.3559  -3.1124  -3.0355  -2.6686  -0.9242  -0.5256  -0.3280   0.0993
     0.3060   0.7522   0.7923   1.1542   1.2207   1.4114   2.0183   2.1146

          k = 0.2500-0.1443 0.2274 (  5998 PWs)   bands (ev):

   -16.5409 -15.8154 -15.0127 -14.6732 -14.6447 -14.5999  -6.3208  -4.9313
    -3.6583  -3.1335  -2.8589  -2.6812  -0.9550  -0.4427  -0.3054   0.0211
     0.3523   0.6908   0.8239   1.0520   1.2747   1.4443   1.9874   2.1149

          k = 0.2500-0.1443 0.3790 (  6007 PWs)   bands (ev):

   -16.3668 -16.0866 -14.9138 -14.6812 -14.6371 -14.6011  -6.4857  -4.4747
    -3.9542  -3.1328  -2.9712  -2.5200  -0.8560  -0.6319  -0.2312   0.0504
     0.2863   0.7267   0.8043   1.0409   1.1733   1.6618   1.9055   2.0761

          k = 0.4167 0.7217 0.0758 (  5995 PWs)   bands (ev):

   -16.2582 -15.8921 -15.2592 -14.6970 -14.6577 -14.6255  -6.0440  -4.8622
    -3.9157  -3.0994  -2.9644  -2.2963  -0.8052  -0.6507  -0.5274   0.0593
     0.2241   0.5288   0.6691   1.0572   1.2526   1.6653   1.9287   2.2171

          k = 0.4167 0.7217 0.2274 (  5976 PWs)   bands (ev):

   -16.2448 -15.8387 -15.3218 -14.7056 -14.6751 -14.6221  -5.9153  -4.9028
    -4.0507  -3.0816  -2.7995  -2.4738  -0.9209  -0.7314  -0.3886   0.0872
     0.3432   0.4943   0.9116   1.0461   1.3301   1.6305   1.7955   2.1004

          k = 0.4167 0.7217 0.3790 (  5977 PWs)   bands (ev):

   -16.2311 -15.7673 -15.4035 -14.7253 -14.6634 -14.6359  -5.7524  -4.9902
    -4.1473  -2.9863  -2.7129  -2.6743  -0.9992  -0.7895  -0.2981   0.1840
     0.3338   0.5592   1.1016   1.2048   1.3239   1.5330   1.6464   1.9745

          k = 0.4167-0.2406 0.0758 (  5987 PWs)   bands (ev):

   -16.3844 -15.7821 -15.2251 -14.6987 -14.6566 -14.6199  -6.0181  -5.1045
    -3.5843  -3.1126  -3.0771  -2.3893  -0.9166  -0.5793  -0.3695  -0.0034
     0.2037   0.5684   0.6987   1.1430   1.3229   1.4863   2.0101   2.1688

          k = 0.4167-0.2406 0.2274 (  5999 PWs)   bands (ev):

   -16.3298 -15.8266 -15.2394 -14.7081 -14.6622 -14.6149  -6.0067  -4.9777
    -3.8464  -3.0998  -2.8251  -2.5452  -0.9710  -0.6991  -0.2557  -0.0090
     0.3934   0.5379   0.8091   1.1248   1.3720   1.4773   1.8992   2.0987

          k = 0.4167-0.2406 0.3790 (  5968 PWs)   bands (ev):

   -16.2633 -15.8785 -15.2630 -14.7232 -14.6513 -14.6154  -5.9923  -4.8384
    -4.0403  -3.0496  -2.7350  -2.6461  -0.9602  -0.8704  -0.1535   0.0752
     0.3202   0.6979   0.9380   1.1418   1.2956   1.6041   1.6361   2.0824

          k =-0.0833 0.3368-0.0758 (  5996 PWs)   bands (ev):

   -16.5639 -15.5937 -15.2324 -14.6817 -14.6411 -14.6035  -6.0282  -5.3013
    -3.4699  -3.1495  -2.9842  -2.5542  -0.8790  -0.5521  -0.3304  -0.0517
     0.2510   0.7071   0.8688   1.0825   1.2504   1.4716   1.9456   2.1908

          k =-0.0833 0.3368-0.2274 (  5991 PWs)   bands (ev):

   -16.4786 -15.7953 -15.1230 -14.6786 -14.6372 -14.6084  -6.2130  -4.9490
    -3.7424  -3.1367  -2.8299  -2.5858  -0.9286  -0.4755  -0.3605  -0.1263
     0.3066   0.7584   0.8848   1.1006   1.2830   1.4339   1.8554   2.2003

          k =-0.0833 0.3368-0.3790 (  5999 PWs)   bands (ev):

   -16.3316 -16.0238 -15.0352 -14.6875 -14.6345 -14.6140  -6.3293  -4.5817
    -4.0029  -3.0983  -2.8972  -2.5280  -0.8959  -0.7207  -0.1623  -0.0512
     0.2723   0.7695   0.9092   1.0997   1.2284   1.5193   1.8410   2.1102

          k =-0.0833 0.5292-0.0758 (  5976 PWs)   bands (ev):

   -16.3244 -15.8324 -15.2459 -14.6971 -14.6556 -14.6234  -6.0270  -5.0153
    -3.7058  -3.1296  -3.0117  -2.3314  -0.8282  -0.6487  -0.4577  -0.0565
     0.2739   0.5139   0.7327   1.1102   1.2793   1.5949   1.9385   2.2104

          k =-0.0833 0.5292-0.2274 (  5993 PWs)   bands (ev):

   -16.2906 -15.8171 -15.3016 -14.7038 -14.6644 -14.6177  -5.9563  -4.9690
    -3.9146  -3.1108  -2.8050  -2.4841  -0.8941  -0.7886  -0.3090  -0.0451
     0.3800   0.5514   0.8868   1.0902   1.3133   1.6341   1.7467   2.1498

          k =-0.0833 0.5292-0.3790 (  5973 PWs)   bands (ev):

   -16.2505 -15.8106 -15.3495 -14.7237 -14.6543 -14.6227  -5.8792  -4.9215
    -4.0726  -3.0364  -2.7130  -2.6433  -0.9703  -0.8724  -0.2060   0.1180
     0.2977   0.6776   1.0187   1.2002   1.2933   1.4537   1.6924   2.0725

          k =-0.0833-0.4330-0.0758 (  5993 PWs)   bands (ev):

   -16.4317 -15.7311 -15.2277 -14.6957 -14.6551 -14.6152  -6.0232  -5.1324
    -3.6041  -3.1241  -3.0183  -2.4342  -0.9232  -0.5468  -0.3620   0.0155
     0.1932   0.6481   0.6855   1.1035   1.3055   1.4906   2.0103   2.1672

          k =-0.0833-0.4330-0.2274 (  5985 PWs)   bands (ev):

   -16.3655 -15.8202 -15.2047 -14.7028 -14.6614 -14.6140  -6.0525  -4.9558
    -3.8520  -3.0942  -2.8094  -2.5811  -0.9796  -0.6270  -0.2958   0.0112
     0.3659   0.5809   0.8224   1.1189   1.3461   1.4629   1.9296   2.0855

          k =-0.0833-0.4330-0.3790 (  5989 PWs)   bands (ev):

   -16.2744 -15.9261 -15.1956 -14.7149 -14.6510 -14.6187  -6.0722  -4.7603
    -4.0577  -3.0421  -2.7814  -2.6248  -0.9583  -0.8134  -0.1662   0.0364
     0.3343   0.6851   0.9500   1.1387   1.2866   1.5854   1.7095   2.0504

          k =-0.0833-0.2406-0.0758 (  5994 PWs)   bands (ev):

   -16.6759 -15.5201 -15.1811 -14.6660 -14.6326 -14.5938  -6.0546  -5.4386
    -3.3367  -3.1297  -2.9887  -2.7186  -0.8887  -0.5668  -0.3126   0.0516
     0.3747   0.7912   0.8407   1.1071   1.2531   1.3955   1.9836   2.1275

          k =-0.0833-0.2406-0.2274 (  6002 PWs)   bands (ev):

   -16.5761 -15.8155 -14.9787 -14.6639 -14.6344 -14.5978  -6.3827  -4.9205
    -3.6262  -3.1441  -2.9092  -2.6508  -0.9239  -0.4218  -0.3101   0.0037
     0.3424   0.7187   0.8504   1.0146   1.2710   1.4428   1.9645   2.1557

          k =-0.0833-0.2406-0.3790 (  6003 PWs)   bands (ev):

   -16.3911 -16.1108 -14.8601 -14.6705 -14.6295 -14.6013  -6.5685  -4.4190
    -3.9330  -3.1443  -3.0329  -2.4904  -0.8174  -0.5743  -0.2593   0.0441
     0.2869   0.7044   0.7907   1.0161   1.1416   1.6800   1.9473   2.0868

          k =-0.0833-0.0481-0.0758 (  6002 PWs)   bands (ev):

   -16.7984 -15.4638 -15.1185 -14.6256 -14.6060 -14.5916  -6.1455  -5.5414
    -3.2260  -3.1145  -3.0158  -2.8232  -0.7765  -0.6112  -0.3586  -0.0930
     0.7182   0.8454   0.8874   1.1034   1.2721   1.3913   1.9484   2.0711

          k =-0.0833-0.0481-0.2274 (  6004 PWs)   bands (ev):

   -16.6887 -15.8336 -14.8462 -14.6288 -14.6036 -14.5882  -6.6013  -4.8812
    -3.4468  -3.1965  -3.1168  -2.5890  -0.8055  -0.4376  -0.2961   0.0316
     0.4871   0.7145   0.8521   0.8650   1.1599   1.5431   2.0218   2.1713

          k =-0.0833-0.0481-0.3790 (  6003 PWs)   bands (ev):

   -16.4782 -16.1836 -14.6861 -14.6349 -14.6099 -14.5817  -6.8480  -4.2598
    -3.7682  -3.2588  -3.2330  -2.4195  -0.6419  -0.3677  -0.3505   0.1455
     0.3248   0.5280   0.6726   0.8697   1.0339   1.7995   2.0299   2.1667

          k =-0.2500 0.6255-0.0758 (  6002 PWs)   bands (ev):

   -16.2105 -15.9325 -15.2726 -14.6953 -14.6579 -14.6269  -6.0570  -4.7055
    -4.1091  -3.0758  -2.9421  -2.2703  -0.7910  -0.6162  -0.5929   0.1460
     0.2000   0.4746   0.6744   1.0217   1.2193   1.7288   1.9042   2.2252

          k =-0.2500 0.6255-0.2274 (  5983 PWs)   bands (ev):

   -16.2160 -15.8517 -15.3359 -14.7028 -14.6837 -14.6255  -5.8943  -4.8270
    -4.1719  -3.0638  -2.7966  -2.4630  -0.9322  -0.6563  -0.4683   0.1680
     0.3218   0.4450   0.9566   1.0102   1.3111   1.6515   1.8159   2.0664

          k =-0.2500 0.6255-0.3790 (  5953 PWs)   bands (ev):

   -16.2187 -15.7419 -15.4337 -14.7237 -14.6723 -14.6449  -5.6581  -5.0411
    -4.2049  -2.9503  -2.7265  -2.6863  -1.0116  -0.6927  -0.3984   0.2152
     0.3916   0.4593   1.1582   1.2246   1.3466   1.5606   1.6588   1.8661

          k =-0.2500-0.3368-0.0758 (  5996 PWs)   bands (ev):

   -16.4583 -15.6899 -15.2495 -14.6896 -14.6528 -14.6100  -6.0324  -5.1310
    -3.6627  -3.1322  -2.9500  -2.4476  -0.8649  -0.5817  -0.3699  -0.0425
     0.2062   0.6331   0.8784   0.9816   1.2672   1.5471   1.9495   2.2041

          k =-0.2500-0.3368-0.2274 (  5988 PWs)   bands (ev):

   -16.3891 -15.8006 -15.2097 -14.6895 -14.6583 -14.6141  -6.0802  -4.9362
    -3.8808  -3.1020  -2.7976  -2.5548  -0.9401  -0.5782  -0.3811  -0.0447
     0.3171   0.6666   0.8983   1.1272   1.2548   1.5093   1.8447   2.1527

          k =-0.2500-0.3368-0.3790 (  5990 PWs)   bands (ev):

   -16.2838 -15.9443 -15.1662 -14.7010 -14.6498 -14.6276  -6.1132  -4.7111
    -4.0880  -3.0302  -2.8248  -2.5868  -0.9465  -0.7687  -0.1968  -0.0141
     0.3285   0.6994   0.9817   1.1776   1.2955   1.4641   1.8047   2.0246

          k =-0.2500-0.1443-0.0758 (  6011 PWs)   bands (ev):

   -16.6382 -15.5350 -15.2120 -14.6727 -14.6300 -14.5987  -6.0401  -5.4004
    -3.3650  -3.1480  -3.0022  -2.6412  -0.8692  -0.5549  -0.3483   0.0068
     0.3062   0.7662   0.8695   1.1118   1.2538   1.4203   1.9415   2.1744

          k =-0.2500-0.1443-0.2274 (  5998 PWs)   bands (ev):

   -16.5438 -15.8014 -15.0459 -14.6694 -14.6198 -14.6061  -6.3229  -4.9378
    -3.6581  -3.1573  -2.8832  -2.5964  -0.9085  -0.3927  -0.3659  -0.1254
     0.3021   0.7804   0.8952   1.0332   1.3457   1.3674   1.8813   2.2183

          k =-0.2500-0.1443-0.3790 (  6007 PWs)   bands (ev):

   -16.3715 -16.0782 -14.9317 -14.6757 -14.6242 -14.6050  -6.4867  -4.4839
    -3.9454  -3.1450  -2.9740  -2.4885  -0.8448  -0.6386  -0.2163  -0.0001
     0.2411   0.7407   0.8860   1.0287   1.1749   1.5991   1.8751   2.1458

          k =-0.4167-0.2406-0.0758 (  5987 PWs)   bands (ev):

   -16.3870 -15.7699 -15.2426 -14.6951 -14.6513 -14.6207  -6.0189  -5.1075
    -3.5892  -3.1526  -3.0316  -2.3709  -0.8582  -0.5820  -0.4318  -0.1356
     0.3126   0.5213   0.7769   1.1389   1.2704   1.5613   1.9340   2.2094

          k =-0.4167-0.2406-0.2274 (  5999 PWs)   bands (ev):

   -16.3367 -15.8001 -15.2745 -14.6985 -14.6556 -14.6150  -6.0081  -4.9871
    -3.8413  -3.1326  -2.8027  -2.4994  -0.8995  -0.7549  -0.2518  -0.1601
     0.3752   0.6231   0.8881   1.1172   1.2731   1.6227   1.7324   2.1818

          k =-0.4167-0.2406-0.3790 (  5968 PWs)   bands (ev):

   -16.2687 -15.8634 -15.2804 -14.7176 -14.6488 -14.6154  -5.9929  -4.8460
    -4.0330  -3.0688  -2.7360  -2.6102  -0.9440  -0.8888  -0.1572   0.0515
     0.2743   0.7665   0.9670   1.1836   1.2982   1.3962   1.7301   2.1153

     highest occupied level (ev):     2.2271

!    total energy              =    -217.04046897 Ry
     estimated scf accuracy    <          6.1E-09 Ry

     The total energy is the sum of the following terms:
     one-electron contribution =    -101.80593364 Ry
     hartree contribution      =      75.55572501 Ry
     xc contribution           =     -49.62573815 Ry
     ewald contribution        =    -141.16452219 Ry

     convergence has been achieved in  13 iterations

     Writing all to output data dir ./tmp_quartz_hex/quartz_hex.save/ :
     XML data file, charge density, pseudopotentials, collected wavefunctions

     init_run     :     11.07s CPU     11.39s WALL (       1 calls)
     electrons    :    303.86s CPU    305.65s WALL (       1 calls)

     Called by init_run:
     wfcinit      :      9.89s CPU     10.11s WALL (       1 calls)
     potinit      :      0.28s CPU      0.31s WALL (       1 calls)
     hinit0       :      0.71s CPU      0.73s WALL (       1 calls)

     Called by electrons:
     c_bands      :    270.23s CPU    271.28s WALL (      13 calls)
     sum_band     :     31.68s CPU     32.11s WALL (      13 calls)
     v_of_rho     :      0.39s CPU      0.41s WALL (      14 calls)
     newd         :      1.19s CPU      1.52s WALL (      14 calls)
     mix_rho      :      0.28s CPU      0.29s WALL (      13 calls)

     Called by c_bands:
     init_us_2    :      5.09s CPU      5.12s WALL (    1701 calls)
     cegterg      :    262.46s CPU    263.48s WALL (     819 calls)

     Called by *egterg:
     cdiaghg      :      2.34s CPU      2.35s WALL (    3137 calls)
     h_psi        :    232.79s CPU    233.90s WALL (    3200 calls)
     s_psi        :      6.79s CPU      6.83s WALL (    3200 calls)
     g_psi        :      1.13s CPU      1.14s WALL (    2318 calls)

     Called by h_psi:
     h_psi:calbec :      7.60s CPU      7.64s WALL (    3200 calls)
     vloc_psi     :    217.16s CPU    218.05s WALL (    3200 calls)
     add_vuspsi   :      6.87s CPU      6.91s WALL (    3200 calls)

     General routines
     calbec       :      9.76s CPU      9.83s WALL (    4019 calls)
     fft          :      0.93s CPU      0.93s WALL (      81 calls)
     ffts         :      0.25s CPU      0.25s WALL (      27 calls)
     fftw         :    172.85s CPU    173.55s WALL (  150370 calls)
     interpolate  :      0.32s CPU      0.32s WALL (      14 calls)

     Parallel routines

     PWSCF        :   5m15.03s CPU   5m17.37s WALL


   This run was terminated on:  18:45:27  16Nov2025            

=------------------------------------------------------------------------------=
   JOB DONE.
=------------------------------------------------------------------------------=
