
     Program PWSCF v.7.4.1 starts on 17Nov2025 at  0:40:29 

     This program is part of the open-source Quantum ESPRESSO suite
     for quantum simulation of materials; please cite
         "P. Giannozzi et al., J. Phys.:Condens. Matter 21 395502 (2009);
         "P. Giannozzi et al., J. Phys.:Condens. Matter 29 465901 (2017);
         "P. Giannozzi et al., J. Chem. Phys. 152 154105 (2020);
          URL http://www.quantum-espresso.org", 
     in publications or presentations arising from this work. More details at
     http://www.quantum-espresso.org/quote

     Parallel version (MPI), running on     1 processors

     MPI processes distributed on     1 nodes
     4466 MiB available memory on the printing compute node when the environment starts

     Reading input from quartz/scf/quartz_scf.in

     Current dimensions of program PWSCF are:
     Max number of different atomic species (ntypx) = 10
     Max number of k-points (npk) =  40000
     Max angular momentum in pseudopotentials (lmaxx) =  4

     IMPORTANT: XC functional enforced from input :
     Exchange-correlation= LDA
                           (   1   1   0   0   0   0   0)
     Any further DFT definition will be discarded
     Please, verify this is what you really want


     Subspace diagonalization in iterative solution of the eigenvalue problem:
     a serial algorithm will be used


     G-vector sticks info
     --------------------
     sticks:   dense  smooth     PW     G-vecs:    dense   smooth      PW
     Sum        2773    1375    421               134717    47547    7871

     Using Slab Decomposition



     bravais-lattice index     =            0
     lattice parameter (alat)  =       9.2989  a.u.
     unit-cell volume          =     758.2272 (a.u.)^3
     number of atoms/cell      =            9
     number of atomic types    =            2
     number of electrons       =        48.00
     number of Kohn-Sham states=           24
     kinetic-energy cutoff     =      60.0000  Ry
     charge density cutoff     =     480.0000  Ry
     scf convergence threshold =      1.0E-08
     mixing beta               =       0.3000
     number of iterations used =            8  plain     mixing
     Exchange-correlation= LDA
                           (   1   1   0   0   0   0   0)

     celldm(1)=   9.298910  celldm(2)=   0.000000  celldm(3)=   0.000000
     celldm(4)=   0.000000  celldm(5)=   0.000000  celldm(6)=   0.000000

     crystal axes: (cart. coord. in units of alat)
               a(1) = (   0.999751  -0.015585  -0.015945 )  
               a(2) = (  -0.519752   0.844339   0.049763 )  
               a(3) = (  -0.010166   0.059480   1.131034 )  

     reciprocal axes: (cart. coord. in units 2 pi/alat)
               b(1) = (  1.009581  0.622866 -0.023682 )  
               b(2) = (  0.017688  1.198953 -0.062892 )  
               b(3) = (  0.013454 -0.043970  0.886580 )  


     PseudoPot. # 1 for Si read from file:
     ./pseudos/Si.pz-vbc.UPF
     MD5 check sum: 9f25e6ff280f3123e9b3a84715b2e9c9
     Pseudo is Norm-conserving, Zval =  4.0
     Generated by new atomic code, or converted to UPF format
     Using radial grid of  431 points,  2 beta functions with: 
                l(1) =   0
                l(2) =   1

     PseudoPot. # 2 for O  read from file:
     ./pseudos/O.pz-van_ak.UPF
     MD5 check sum: b77f3d8cfe972ebbeca95ec6abb46c7c
     Pseudo is Ultrasoft, Zval =  6.0
     Generated by new atomic code, or converted to UPF format
     Using radial grid of  737 points,  4 beta functions with: 
                l(1) =   0
                l(2) =   0
                l(3) =   1
                l(4) =   1
     Q(r) pseudized with  8 coefficients,  rinner =    0.800   0.800   0.800


     atomic species   valence    mass     pseudopotential
     Si                4.00    28.08550     Si( 1.00)
     O                 6.00    15.99940     O ( 1.00)

     No symmetry found



   Cartesian axes

     site n.     atom                  positions (alat units)
         1        Si     tau(   1) = (   0.4588246  -0.0023534  -0.0044975  )
         2        Si     tau(   2) = (  -0.2563466   0.4758311   0.7589465  )
         3        Si     tau(   3) = (   0.2309565   0.4000206   0.3933443  )
         4        O      tau(   4) = (   0.2430173   0.1052836   0.2301808  )
         5        O      tau(   5) = (   0.5411359   0.4214017   0.4913334  )
         6        O      tau(   6) = (   0.5792560   0.3499649   1.0380424  )
         7        O      tau(   7) = (   0.1709643   0.6768396   0.2187895  )
         8        O      tau(   8) = (   0.0435175   0.3606108   0.6602634  )
         9        O      tau(   9) = (  -0.1319886   0.7653338   0.8730056  )

     number of k points=   504

     Number of k-points >= 100: set verbosity='high' to print them.

     Dense  grid:   134717 G-vectors     FFT dimensions: (  72,  72,  75)

     Smooth grid:    47547 G-vectors     FFT dimensions: (  45,  45,  54)

     Estimated max dynamical RAM per process >       1.26 GB

     Initial potential from superposition of free atoms

     starting charge      47.9985, renormalised to      48.0000
     Starting wfcs are   36 randomized atomic wfcs

     total cpu time spent up to now is       83.4 secs

     Self-consistent Calculation

     iteration #  1     ecut=    60.00 Ry     beta= 0.30
     Davidson diagonalization with overlap
     ethr =  1.00E-02,  avg # of iterations =  2.0

     total cpu time spent up to now is      254.8 secs

     total energy              =    -216.60289310 Ry
     estimated scf accuracy    <       2.35014640 Ry

     iteration #  2     ecut=    60.00 Ry     beta= 0.30
     Davidson diagonalization with overlap
     ethr =  4.90E-03,  avg # of iterations =  2.0

     total cpu time spent up to now is      415.2 secs

     total energy              =    -216.82489092 Ry
     estimated scf accuracy    <       0.26247901 Ry

     iteration #  3     ecut=    60.00 Ry     beta= 0.30
     Davidson diagonalization with overlap
     ethr =  5.47E-04,  avg # of iterations =  3.0

     total cpu time spent up to now is      627.7 secs

     total energy              =    -216.90952122 Ry
     estimated scf accuracy    <       0.09540928 Ry

     iteration #  4     ecut=    60.00 Ry     beta= 0.30
     Davidson diagonalization with overlap
     ethr =  1.99E-04,  avg # of iterations =  3.0

     total cpu time spent up to now is      842.4 secs

     total energy              =    -216.91032137 Ry
     estimated scf accuracy    <       0.16874914 Ry

     iteration #  5     ecut=    60.00 Ry     beta= 0.30
     Davidson diagonalization with overlap
     ethr =  1.99E-04,  avg # of iterations =  2.0

     total cpu time spent up to now is     1016.6 secs

     total energy              =    -216.93803577 Ry
     estimated scf accuracy    <       0.00266342 Ry

     iteration #  6     ecut=    60.00 Ry     beta= 0.30
     Davidson diagonalization with overlap
     ethr =  5.55E-06,  avg # of iterations =  5.0

     total cpu time spent up to now is     1279.0 secs

     total energy              =    -216.94168141 Ry
     estimated scf accuracy    <       0.00222134 Ry

     iteration #  7     ecut=    60.00 Ry     beta= 0.30
     Davidson diagonalization with overlap
     ethr =  4.63E-06,  avg # of iterations =  1.0

     total cpu time spent up to now is     1405.5 secs

     total energy              =    -216.94156340 Ry
     estimated scf accuracy    <       0.00076958 Ry

     iteration #  8     ecut=    60.00 Ry     beta= 0.30
     Davidson diagonalization with overlap
     ethr =  1.60E-06,  avg # of iterations =  1.7

     total cpu time spent up to now is     1532.7 secs

     total energy              =    -216.94150402 Ry
     estimated scf accuracy    <       0.00022377 Ry

     iteration #  9     ecut=    60.00 Ry     beta= 0.30
     Davidson diagonalization with overlap
     ethr =  4.66E-07,  avg # of iterations =  2.0

     total cpu time spent up to now is     1708.3 secs

     total energy              =    -216.94158333 Ry
     estimated scf accuracy    <       0.00000485 Ry

     iteration # 10     ecut=    60.00 Ry     beta= 0.30
     Davidson diagonalization with overlap
     ethr =  1.01E-08,  avg # of iterations =  4.6

     total cpu time spent up to now is     1960.7 secs

     total energy              =    -216.94158553 Ry
     estimated scf accuracy    <       0.00003731 Ry

     iteration # 11     ecut=    60.00 Ry     beta= 0.30
     Davidson diagonalization with overlap
     ethr =  1.01E-08,  avg # of iterations =  1.5

     total cpu time spent up to now is     2090.2 secs

     total energy              =    -216.94157333 Ry
     estimated scf accuracy    <       0.00002406 Ry

     iteration # 12     ecut=    60.00 Ry     beta= 0.30
     Davidson diagonalization with overlap
     ethr =  1.01E-08,  avg # of iterations =  4.0

     total cpu time spent up to now is     2316.4 secs

     total energy              =    -216.94157908 Ry
     estimated scf accuracy    <       0.00000024 Ry

     iteration # 13     ecut=    60.00 Ry     beta= 0.30
     Davidson diagonalization with overlap
     ethr =  5.03E-10,  avg # of iterations =  3.1

     total cpu time spent up to now is     2496.2 secs

     total energy              =    -216.94157917 Ry
     estimated scf accuracy    <       0.00000006 Ry

     iteration # 14     ecut=    60.00 Ry     beta= 0.30
     Davidson diagonalization with overlap
     ethr =  1.18E-10,  avg # of iterations =  2.6

     total cpu time spent up to now is     2655.0 secs

     total energy              =    -216.94157919 Ry
     estimated scf accuracy    <       0.00000006 Ry

     iteration # 15     ecut=    60.00 Ry     beta= 0.30
     Davidson diagonalization with overlap
     ethr =  1.18E-10,  avg # of iterations =  1.0

     total cpu time spent up to now is     2774.6 secs

     total energy              =    -216.94157919 Ry
     estimated scf accuracy    <       0.00000005 Ry

     iteration # 16     ecut=    60.00 Ry     beta= 0.30
     Davidson diagonalization with overlap
     ethr =  1.14E-10,  avg # of iterations =  2.1

     total cpu time spent up to now is     2941.5 secs

     End of self-consistent calculation

     Number of k-points >= 100: set verbosity='high' to print the bands.

     highest occupied level (ev):     2.6432

!    total energy              =    -216.94157918 Ry
     estimated scf accuracy    <          4.6E-10 Ry

     The total energy is the sum of the following terms:
     one-electron contribution =    -102.56076535 Ry
     hartree contribution      =      76.37111960 Ry
     xc contribution           =     -49.50976039 Ry
     ewald contribution        =    -141.24217304 Ry

     convergence has been achieved in  16 iterations

     Writing all to output data dir ./tmp/quartz.save/ :
     XML data file, charge density, pseudopotentials, collected wavefunctions

     init_run     :     80.07s CPU     83.31s WALL (       1 calls)
     electrons    :   2846.61s CPU   2858.16s WALL (       1 calls)

     Called by init_run:
     wfcinit      :     78.54s CPU     81.49s WALL (       1 calls)
     potinit      :      0.29s CPU      0.34s WALL (       1 calls)
     hinit0       :      0.74s CPU      0.81s WALL (       1 calls)

     Called by electrons:
     c_bands      :   2541.92s CPU   2551.26s WALL (      16 calls)
     sum_band     :    302.09s CPU    303.91s WALL (      16 calls)
     v_of_rho     :      0.51s CPU      0.55s WALL (      17 calls)
     newd         :      1.53s CPU      2.00s WALL (      17 calls)
     mix_rho      :      0.44s CPU      0.45s WALL (      16 calls)

     Called by c_bands:
     init_us_2    :     50.19s CPU     50.54s WALL (   16632 calls)
     cegterg      :   2463.36s CPU   2472.34s WALL (    8064 calls)

     Called by *egterg:
     cdiaghg      :     21.36s CPU     21.42s WALL (   28607 calls)
     h_psi        :   2184.95s CPU   2195.70s WALL (   29111 calls)
     s_psi        :     63.87s CPU     64.21s WALL (   29111 calls)
     g_psi        :     10.33s CPU     10.39s WALL (   20543 calls)

     Called by h_psi:
     h_psi:calbec :     70.91s CPU     71.21s WALL (   29111 calls)
     vloc_psi     :   2040.55s CPU   2048.35s WALL (   29111 calls)
     add_vuspsi   :     63.65s CPU     63.92s WALL (   29111 calls)

     General routines
     calbec       :     92.58s CPU     93.02s WALL (   37175 calls)
     fft          :      1.14s CPU      1.16s WALL (      99 calls)
     ffts         :      0.26s CPU      0.26s WALL (      33 calls)
     fftw         :   1613.93s CPU   1620.03s WALL ( 1411254 calls)
     interpolate  :      0.37s CPU      0.38s WALL (      17 calls)

     Parallel routines

     PWSCF        :  48m47.45s CPU  49m 7.08s WALL


   This run was terminated on:   1:29:36  17Nov2025            

=------------------------------------------------------------------------------=
   JOB DONE.
=------------------------------------------------------------------------------=
