
     Program PWSCF v.7.4.1 starts on 16Nov2025 at 18:38: 2 

     This program is part of the open-source Quantum ESPRESSO suite
     for quantum simulation of materials; please cite
         "P. Giannozzi et al., J. Phys.:Condens. Matter 21 395502 (2009);
         "P. Giannozzi et al., J. Phys.:Condens. Matter 29 465901 (2017);
         "P. Giannozzi et al., J. Chem. Phys. 152 154105 (2020);
          URL http://www.quantum-espresso.org", 
     in publications or presentations arising from this work. More details at
     http://www.quantum-espresso.org/quote

     Parallel version (MPI), running on     1 processors

     MPI processes distributed on     1 nodes
     4457 MiB available memory on the printing compute node when the environment starts

     Reading input from quartz/scf/quartz_hex_scf_nk4.in

     Current dimensions of program PWSCF are:
     Max number of different atomic species (ntypx) = 10
     Max number of k-points (npk) =  40000
     Max angular momentum in pseudopotentials (lmaxx) =  4

     IMPORTANT: XC functional enforced from input :
     Exchange-correlation= LDA
                           (   1   1   0   0   0   0   0)
     Any further DFT definition will be discarded
     Please, verify this is what you really want

     Message from routine setup:
     using ibrav=0 with symmetry is DISCOURAGED, use correct ibrav instead

     Subspace diagonalization in iterative solution of the eigenvalue problem:
     a serial algorithm will be used


     G-vector sticks info
     --------------------
     sticks:   dense  smooth     PW     G-vecs:    dense   smooth      PW
     Sum        2857    1417    421               135659    47859    7383

     Using Slab Decomposition



     bravais-lattice index     =            0
     lattice parameter (alat)  =       9.2899  a.u.
     unit-cell volume          =     763.3904 (a.u.)^3
     number of atoms/cell      =            9
     number of atomic types    =            2
     number of electrons       =        48.00
     number of Kohn-Sham states=           24
     kinetic-energy cutoff     =      60.0000  Ry
     charge density cutoff     =     480.0000  Ry
     scf convergence threshold =      1.0E-08
     mixing beta               =       0.3000
     number of iterations used =            8  plain     mixing
     Exchange-correlation= LDA
                           (   1   1   0   0   0   0   0)

     celldm(1)=   9.289894  celldm(2)=   0.000000  celldm(3)=   0.000000
     celldm(4)=   0.000000  celldm(5)=   0.000000  celldm(6)=   0.000000

     crystal axes: (cart. coord. in units of alat)
               a(1) = (   1.000000   0.000000   0.000000 )  
               a(2) = (  -0.500000   0.866025   0.000000 )  
               a(3) = (   0.000000   0.000000   1.099471 )  

     reciprocal axes: (cart. coord. in units 2 pi/alat)
               b(1) = (  1.000000  0.577350 -0.000000 )  
               b(2) = (  0.000000  1.154701  0.000000 )  
               b(3) = (  0.000000 -0.000000  0.909528 )  


     PseudoPot. # 1 for Si read from file:
     ./pseudos/Si.pz-vbc.UPF
     MD5 check sum: 9f25e6ff280f3123e9b3a84715b2e9c9
     Pseudo is Norm-conserving, Zval =  4.0
     Generated by new atomic code, or converted to UPF format
     Using radial grid of  431 points,  2 beta functions with: 
                l(1) =   0
                l(2) =   1

     PseudoPot. # 2 for O  read from file:
     ./pseudos/O.pz-van_ak.UPF
     MD5 check sum: b77f3d8cfe972ebbeca95ec6abb46c7c
     Pseudo is Ultrasoft, Zval =  6.0
     Generated by new atomic code, or converted to UPF format
     Using radial grid of  737 points,  4 beta functions with: 
                l(1) =   0
                l(2) =   0
                l(3) =   1
                l(4) =   1
     Q(r) pseudized with  8 coefficients,  rinner =    0.800   0.800   0.800


     atomic species   valence    mass     pseudopotential
     Si                4.00    28.08550     Si( 1.00)
     O                 6.00    15.99940     O ( 1.00)

      6 Sym. Ops. (no inversion) found ( 4 have fractional translation)



   Cartesian axes

     site n.     atom                  positions (alat units)
         1        Si     tau(   1) = (   0.2680813   0.4643297   0.0000000  )
         2        Si     tau(   2) = (   0.4638394   0.0000000   0.3664910  )
         3        Si     tau(   3) = (  -0.2319187   0.4016955   0.7329801  )
         4        O      tau(   4) = (   0.0716140   0.3554925   0.8553916  )
         5        O      tau(   5) = (   0.1563290   0.7502988   0.1224095  )
         6        O      tau(   6) = (  -0.2279430   0.6262612   0.4889006  )
         7        O      tau(   7) = (   0.2720570   0.2397640   0.2440795  )
         8        O      tau(   8) = (   0.5716140   0.5105348   0.9770616  )
         9        O      tau(   9) = (   0.6563290   0.1157264   0.6105706  )

     number of k points=    20
                       cart. coord. in units 2pi/alat
        k(    1) = (   0.1250000   0.2165064   0.1136910), wk =   0.1250000
        k(    2) = (   0.1250000   0.2165064   0.3410731), wk =   0.1250000
        k(    3) = (   0.1250000   0.5051815   0.1136910), wk =   0.1250000
        k(    4) = (   0.1250000   0.5051815   0.3410731), wk =   0.1250000
        k(    5) = (   0.1250000  -0.3608439   0.1136910), wk =   0.1250000
        k(    6) = (   0.1250000  -0.3608439   0.3410731), wk =   0.1250000
        k(    7) = (   0.1250000  -0.0721688   0.1136910), wk =   0.0625000
        k(    8) = (   0.1250000  -0.0721688   0.3410731), wk =   0.0625000
        k(    9) = (   0.3750000   0.6495191   0.1136910), wk =   0.1250000
        k(   10) = (   0.3750000   0.6495191   0.3410731), wk =   0.1250000
        k(   11) = (   0.3750000  -0.2165064   0.1136910), wk =   0.0625000
        k(   12) = (   0.3750000  -0.2165064   0.3410731), wk =   0.0625000
        k(   13) = (  -0.1250000   0.5051815  -0.1136910), wk =   0.1250000
        k(   14) = (  -0.1250000   0.5051815  -0.3410731), wk =   0.1250000
        k(   15) = (  -0.1250000  -0.3608439  -0.1136910), wk =   0.1250000
        k(   16) = (  -0.1250000  -0.3608439  -0.3410731), wk =   0.1250000
        k(   17) = (  -0.1250000  -0.0721688  -0.1136910), wk =   0.0625000
        k(   18) = (  -0.1250000  -0.0721688  -0.3410731), wk =   0.0625000
        k(   19) = (  -0.3750000  -0.2165064  -0.1136910), wk =   0.0625000
        k(   20) = (  -0.3750000  -0.2165064  -0.3410731), wk =   0.0625000

     Dense  grid:   135659 G-vectors     FFT dimensions: (  72,  72,  72)

     Smooth grid:    47859 G-vectors     FFT dimensions: (  45,  45,  54)

     Estimated max dynamical RAM per process >     239.50 MB

     Initial potential from superposition of free atoms

     starting charge      47.9985, renormalised to      48.0000
     Starting wfcs are   36 randomized atomic wfcs

     total cpu time spent up to now is        4.5 secs

     Self-consistent Calculation

     iteration #  1     ecut=    60.00 Ry     beta= 0.30
     Davidson diagonalization with overlap
     ethr =  1.00E-02,  avg # of iterations =  2.0

     total cpu time spent up to now is       11.4 secs

     total energy              =    -216.71456219 Ry
     estimated scf accuracy    <       2.28368886 Ry

     iteration #  2     ecut=    60.00 Ry     beta= 0.30
     Davidson diagonalization with overlap
     ethr =  4.76E-03,  avg # of iterations =  2.0

     total cpu time spent up to now is       17.8 secs

     total energy              =    -216.92924761 Ry
     estimated scf accuracy    <       0.25561285 Ry

     iteration #  3     ecut=    60.00 Ry     beta= 0.30
     Davidson diagonalization with overlap
     ethr =  5.33E-04,  avg # of iterations =  3.0

     total cpu time spent up to now is       26.1 secs

     total energy              =    -217.01567497 Ry
     estimated scf accuracy    <       0.08377581 Ry

     iteration #  4     ecut=    60.00 Ry     beta= 0.30
     Davidson diagonalization with overlap
     ethr =  1.75E-04,  avg # of iterations =  4.0

     total cpu time spent up to now is       34.6 secs

     total energy              =    -216.99828768 Ry
     estimated scf accuracy    <       0.21352244 Ry

     iteration #  5     ecut=    60.00 Ry     beta= 0.30
     Davidson diagonalization with overlap
     ethr =  1.75E-04,  avg # of iterations =  3.0

     total cpu time spent up to now is       42.6 secs

     total energy              =    -217.03922844 Ry
     estimated scf accuracy    <       0.00033060 Ry

     iteration #  6     ecut=    60.00 Ry     beta= 0.30
     Davidson diagonalization with overlap
     ethr =  6.89E-07,  avg # of iterations =  5.8

     total cpu time spent up to now is       54.3 secs

     total energy              =    -217.04046455 Ry
     estimated scf accuracy    <       0.00008017 Ry

     iteration #  7     ecut=    60.00 Ry     beta= 0.30
     Davidson diagonalization with overlap
     ethr =  1.67E-07,  avg # of iterations =  2.1

     total cpu time spent up to now is       61.2 secs

     total energy              =    -217.04045035 Ry
     estimated scf accuracy    <       0.00007586 Ry

     iteration #  8     ecut=    60.00 Ry     beta= 0.30
     Davidson diagonalization with overlap
     ethr =  1.58E-07,  avg # of iterations =  3.0

     total cpu time spent up to now is       69.6 secs

     total energy              =    -217.04046619 Ry
     estimated scf accuracy    <       0.00018212 Ry

     iteration #  9     ecut=    60.00 Ry     beta= 0.30
     Davidson diagonalization with overlap
     ethr =  1.58E-07,  avg # of iterations =  2.0

     total cpu time spent up to now is       76.1 secs

     total energy              =    -217.04046746 Ry
     estimated scf accuracy    <       0.00004436 Ry

     iteration # 10     ecut=    60.00 Ry     beta= 0.30
     Davidson diagonalization with overlap
     ethr =  9.24E-08,  avg # of iterations =  1.1

     total cpu time spent up to now is       81.0 secs

     total energy              =    -217.04046688 Ry
     estimated scf accuracy    <       0.00001460 Ry

     iteration # 11     ecut=    60.00 Ry     beta= 0.30
     Davidson diagonalization with overlap
     ethr =  3.04E-08,  avg # of iterations =  2.0

     total cpu time spent up to now is       87.3 secs

     total energy              =    -217.04046924 Ry
     estimated scf accuracy    <       0.00000338 Ry

     iteration # 12     ecut=    60.00 Ry     beta= 0.30
     Davidson diagonalization with overlap
     ethr =  7.04E-09,  avg # of iterations =  2.0

     total cpu time spent up to now is       92.6 secs

     total energy              =    -217.04046949 Ry
     estimated scf accuracy    <       0.00000259 Ry

     iteration # 13     ecut=    60.00 Ry     beta= 0.30
     Davidson diagonalization with overlap
     ethr =  5.40E-09,  avg # of iterations =  1.0

     total cpu time spent up to now is       97.5 secs

     total energy              =    -217.04046892 Ry
     estimated scf accuracy    <       0.00000223 Ry

     iteration # 14     ecut=    60.00 Ry     beta= 0.30
     Davidson diagonalization with overlap
     ethr =  4.66E-09,  avg # of iterations =  2.0

     total cpu time spent up to now is      103.0 secs

     total energy              =    -217.04046900 Ry
     estimated scf accuracy    <       0.00000069 Ry

     iteration # 15     ecut=    60.00 Ry     beta= 0.30
     Davidson diagonalization with overlap
     ethr =  1.44E-09,  avg # of iterations =  2.0

     total cpu time spent up to now is      109.4 secs

     total energy              =    -217.04046899 Ry
     estimated scf accuracy    <       0.00000031 Ry

     iteration # 16     ecut=    60.00 Ry     beta= 0.30
     Davidson diagonalization with overlap
     ethr =  6.50E-10,  avg # of iterations =  2.0

     total cpu time spent up to now is      115.3 secs

     total energy              =    -217.04046899 Ry
     estimated scf accuracy    <       0.00000006 Ry

     iteration # 17     ecut=    60.00 Ry     beta= 0.30
     Davidson diagonalization with overlap
     ethr =  1.28E-10,  avg # of iterations =  3.0

     total cpu time spent up to now is      122.8 secs

     total energy              =    -217.04046900 Ry
     estimated scf accuracy    <       0.00000004 Ry

     iteration # 18     ecut=    60.00 Ry     beta= 0.30
     Davidson diagonalization with overlap
     ethr =  7.48E-11,  avg # of iterations =  1.8

     total cpu time spent up to now is      128.0 secs

     End of self-consistent calculation

          k = 0.1250 0.2165 0.1137 (  5999 PWs)   bands (ev):

   -16.6649 -15.5835 -15.1294 -14.6638 -14.6293 -14.5939  -6.1472  -5.3222
    -3.4075  -3.1303  -2.9407  -2.7165  -0.8884  -0.5472  -0.2951   0.0148
     0.3635   0.8027   0.8520   1.0742   1.2725   1.4024   1.9408   2.1654

          k = 0.1250 0.2165 0.3411 (  6007 PWs)   bands (ev):

   -16.4474 -16.0414 -14.8775 -14.6653 -14.6254 -14.6019  -6.5491  -4.5279
    -3.8507  -3.1514  -3.0123  -2.5081  -0.8493  -0.4964  -0.2881   0.0162
     0.2922   0.6990   0.8321   1.0023   1.1668   1.6058   1.9654   2.1192

          k = 0.1250 0.5052 0.1137 (  5989 PWs)   bands (ev):

   -16.3180 -15.8318 -15.2500 -14.6993 -14.6607 -14.6207  -6.0197  -4.9727
    -3.8106  -3.1121  -2.9485  -2.3738  -0.8920  -0.6149  -0.4357   0.0430
     0.2287   0.5822   0.6895   1.0698   1.3156   1.5689   1.9568   2.1784

          k = 0.1250 0.5052 0.3411 (  5976 PWs)   bands (ev):

   -16.2529 -15.8304 -15.3173 -14.7206 -14.6613 -14.6246  -5.8908  -4.9092
    -4.0811  -3.0313  -2.7025  -2.6628  -0.9782  -0.8069  -0.2453   0.0983
     0.3715   0.5730   1.0079   1.1418   1.3287   1.5724   1.6928   2.0291

          k = 0.1250-0.3608 0.1137 (  5990 PWs)   bands (ev):

   -16.5017 -15.6664 -15.2263 -14.6850 -14.6466 -14.6069  -6.0550  -5.1710
    -3.6130  -3.1345  -2.9267  -2.5165  -0.8889  -0.5319  -0.3582  -0.0972
     0.2623   0.6784   0.8825   1.0519   1.2496   1.5199   1.9103   2.2054

          k = 0.1250-0.3608 0.3411 (  5989 PWs)   bands (ev):

   -16.3399 -15.9437 -15.1109 -14.6902 -14.6443 -14.6174  -6.2142  -4.7066
    -3.9926  -3.0832  -2.8302  -2.5663  -0.9355  -0.7029  -0.2071  -0.0527
     0.3012   0.7466   0.9306   1.1386   1.3081   1.4155   1.8454   2.0969

          k = 0.1250-0.0722 0.1137 (  5998 PWs)   bands (ev):

   -16.7549 -15.5612 -15.0586 -14.6367 -14.6144 -14.5896  -6.2416  -5.3701
    -3.2991  -3.1347  -2.9899  -2.7815  -0.8411  -0.5448  -0.3415  -0.0217
     0.6143   0.8003   0.8709   1.0533   1.2550   1.4164   1.9558   2.1169

          k = 0.1250-0.0722 0.3411 (  6006 PWs)   bands (ev):

   -16.5175 -16.0880 -14.7430 -14.6395 -14.6219 -14.5858  -6.7488  -4.4327
    -3.7236  -3.2308  -3.1464  -2.4675  -0.7442  -0.3648  -0.3444   0.1003
     0.3395   0.6038   0.7158   0.9114   1.0843   1.7054   2.0620   2.1251

          k = 0.3750 0.6495 0.1137 (  5996 PWs)   bands (ev):

   -16.1900 -15.9386 -15.2852 -14.6957 -14.6655 -14.6251  -6.0299  -4.6890
    -4.1590  -3.0785  -2.9088  -2.2946  -0.8136  -0.6464  -0.5597   0.1532
     0.2391   0.4341   0.7403   1.0058   1.2406   1.7326   1.8792   2.2003

          k = 0.3750 0.6495 0.3411 (  5960 PWs)   bands (ev):

   -16.2140 -15.7516 -15.4298 -14.7198 -14.6787 -14.6389  -5.6847  -5.0096
    -4.2075  -2.9852  -2.7177  -2.6477  -1.0014  -0.6742  -0.4265   0.2280
     0.3658   0.4526   1.1112   1.1837   1.3392   1.6148   1.6633   1.9054

          k = 0.3750-0.2165 0.1137 (  5993 PWs)   bands (ev):

   -16.4339 -15.7404 -15.2111 -14.6968 -14.6563 -14.6143  -6.0281  -5.1326
    -3.5984  -3.1056  -3.0163  -2.4738  -0.9571  -0.5456  -0.3209   0.0051
     0.2420   0.6208   0.7026   1.1354   1.3376   1.4420   2.0185   2.1367

          k = 0.3750-0.2165 0.3411 (  5982 PWs)   bands (ev):

   -16.3014 -15.9124 -15.1801 -14.7133 -14.6523 -14.6119  -6.0973  -4.7922
    -3.9893  -3.0717  -2.7482  -2.6498  -0.9679  -0.7791  -0.1700   0.0282
     0.3452   0.6831   0.8851   1.1276   1.2970   1.5555   1.7734   2.0703

          k =-0.1250 0.5052-0.1137 (  5989 PWs)   bands (ev):

   -16.3208 -15.8218 -15.2630 -14.6956 -14.6588 -14.6201  -6.0203  -4.9757
    -3.8116  -3.1207  -2.9391  -2.3582  -0.8333  -0.6548  -0.4633  -0.0461
     0.2981   0.5270   0.7841   1.0591   1.2798   1.6284   1.8934   2.2055

          k =-0.1250 0.5052-0.3411 (  5976 PWs)   bands (ev):

   -16.2569 -15.8169 -15.3326 -14.7154 -14.6607 -14.6244  -5.8911  -4.9151
    -4.0759  -3.0445  -2.7154  -2.6248  -0.9675  -0.8171  -0.2559   0.0826
     0.3222   0.6437   1.0085   1.1987   1.2870   1.4976   1.7143   2.0600

          k =-0.1250-0.3608-0.1137 (  5990 PWs)   bands (ev):

   -16.5001 -15.6796 -15.2058 -14.6889 -14.6516 -14.6072  -6.0540  -5.1682
    -3.6088  -3.1205  -2.9387  -2.5412  -0.9366  -0.5254  -0.3198   0.0111
     0.2262   0.6919   0.7788   1.0740   1.2881   1.4677   1.9781   2.1649

          k =-0.1250-0.3608-0.3411 (  5989 PWs)   bands (ev):

   -16.3356 -15.9539 -15.0947 -14.6969 -14.6499 -14.6156  -6.2133  -4.6990
    -3.9994  -3.0669  -2.8270  -2.6029  -0.9488  -0.6917  -0.2128  -0.0092
     0.3451   0.6797   0.9160   1.1195   1.2805   1.5133   1.8738   2.0345

          k =-0.1250-0.0722-0.1137 (  5998 PWs)   bands (ev):

   -16.7551 -15.5584 -15.0642 -14.6386 -14.6083 -14.5908  -6.2419  -5.3705
    -3.3038  -3.1309  -3.0028  -2.7635  -0.8184  -0.5715  -0.3303  -0.0396
     0.5770   0.8421   0.8801   1.0358   1.2945   1.3886   1.9365   2.1354

          k =-0.1250-0.0722-0.3411 (  6006 PWs)   bands (ev):

   -16.5182 -16.0866 -14.7511 -14.6436 -14.6075 -14.5885  -6.7491  -4.4344
    -3.7227  -3.2244  -3.1565  -2.4586  -0.7408  -0.3527  -0.3471   0.0784
     0.3116   0.6013   0.7710   0.8925   1.0855   1.7022   2.0182   2.1707

          k =-0.3750-0.2165-0.1137 (  5993 PWs)   bands (ev):

   -16.4376 -15.7182 -15.2445 -14.6904 -14.6463 -14.6154  -6.0296  -5.1380
    -3.6043  -3.1531  -2.9651  -2.4385  -0.8764  -0.5326  -0.4141  -0.1858
     0.3378   0.5934   0.8291   1.1201   1.2563   1.5658   1.8812   2.2152

          k =-0.3750-0.2165-0.3411 (  5982 PWs)   bands (ev):

   -16.3096 -15.8908 -15.2088 -14.7032 -14.6461 -14.6124  -6.0988  -4.8046
    -3.9778  -3.1020  -2.7584  -2.5802  -0.9416  -0.8060  -0.1516  -0.0602
     0.2845   0.7902   0.9371   1.1699   1.2823   1.3978   1.7775   2.1420

     highest occupied level (ev):     2.2152

!    total energy              =    -217.04046900 Ry
     estimated scf accuracy    <          6.1E-09 Ry

     The total energy is the sum of the following terms:
     one-electron contribution =    -101.80688619 Ry
     hartree contribution      =      75.55696202 Ry
     xc contribution           =     -49.62602265 Ry
     ewald contribution        =    -141.16452219 Ry

     convergence has been achieved in  18 iterations

     Writing all to output data dir ./tmp_quartz_hex/quartz_hex.save/ :
     XML data file, charge density, pseudopotentials, collected wavefunctions

     init_run     :      4.29s CPU      4.41s WALL (       1 calls)
     electrons    :    122.27s CPU    123.57s WALL (       1 calls)

     Called by init_run:
     wfcinit      :      3.10s CPU      3.14s WALL (       1 calls)
     potinit      :      0.30s CPU      0.32s WALL (       1 calls)
     hinit0       :      0.71s CPU      0.73s WALL (       1 calls)

     Called by electrons:
     c_bands      :    104.30s CPU    104.61s WALL (      18 calls)
     sum_band     :     15.30s CPU     15.80s WALL (      18 calls)
     v_of_rho     :      0.54s CPU      0.56s WALL (      19 calls)
     newd         :      1.61s CPU      2.10s WALL (      19 calls)
     mix_rho      :      0.40s CPU      0.42s WALL (      18 calls)

     Called by c_bands:
     init_us_2    :      2.20s CPU      2.21s WALL (     740 calls)
     cegterg      :    100.90s CPU    101.20s WALL (     360 calls)

     Called by *egterg:
     cdiaghg      :      0.89s CPU      0.89s WALL (    1238 calls)
     h_psi        :     89.03s CPU     89.32s WALL (    1258 calls)
     s_psi        :      2.66s CPU      2.67s WALL (    1258 calls)
     g_psi        :      0.43s CPU      0.43s WALL (     878 calls)

     Called by h_psi:
     h_psi:calbec :      2.95s CPU      2.96s WALL (    1258 calls)
     vloc_psi     :     83.02s CPU     83.27s WALL (    1258 calls)
     add_vuspsi   :      2.65s CPU      2.66s WALL (    1258 calls)

     General routines
     calbec       :      3.91s CPU      3.92s WALL (    1618 calls)
     fft          :      1.09s CPU      1.09s WALL (     111 calls)
     ffts         :      0.28s CPU      0.28s WALL (      37 calls)
     fftw         :     66.75s CPU     66.96s WALL (   60558 calls)
     interpolate  :      0.38s CPU      0.39s WALL (      19 calls)

     Parallel routines

     PWSCF        :   2m 6.64s CPU   2m 8.15s WALL


   This run was terminated on:  18:40:10  16Nov2025            

=------------------------------------------------------------------------------=
   JOB DONE.
=------------------------------------------------------------------------------=
