
     Program PWSCF v.7.4.1 starts on 18Nov2025 at 16:39:30 

     This program is part of the open-source Quantum ESPRESSO suite
     for quantum simulation of materials; please cite
         "P. Giannozzi et al., J. Phys.:Condens. Matter 21 395502 (2009);
         "P. Giannozzi et al., J. Phys.:Condens. Matter 29 465901 (2017);
         "P. Giannozzi et al., J. Chem. Phys. 152 154105 (2020);
          URL http://www.quantum-espresso.org", 
     in publications or presentations arising from this work. More details at
     http://www.quantum-espresso.org/quote

     Parallel version (MPI), running on     1 processors

     MPI processes distributed on     1 nodes
     4704 MiB available memory on the printing compute node when the environment starts

     Reading input from pzt/polar_fd/pzt_polar_zz_p002.in

     Current dimensions of program PWSCF are:
     Max number of different atomic species (ntypx) = 10
     Max number of k-points (npk) =  40000
     Max angular momentum in pseudopotentials (lmaxx) =  4

     IMPORTANT: XC functional enforced from input :
     Exchange-correlation= LDA
                           (   1   1   0   0   0   0   0)
     Any further DFT definition will be discarded
     Please, verify this is what you really want


     Subspace diagonalization in iterative solution of the eigenvalue problem:
     a serial algorithm will be used


     G-vector sticks info
     --------------------
     sticks:   dense  smooth     PW     G-vecs:    dense   smooth      PW
     Sum        2025    1005    293                72485    25657    4105

     Using Slab Decomposition



     bravais-lattice index     =            0
     lattice parameter (alat)  =       7.2956  a.u.
     unit-cell volume          =     408.7584 (a.u.)^3
     number of atoms/cell      =            5
     number of atomic types    =            3
     number of electrons       =        44.00
     number of Kohn-Sham states=           22
     kinetic-energy cutoff     =      60.0000  Ry
     charge density cutoff     =     480.0000  Ry
     scf convergence threshold =      1.0E-08
     mixing beta               =       0.3000
     number of iterations used =            8  plain     mixing
     Exchange-correlation= LDA
                           (   1   1   0   0   0   0   0)

     celldm(1)=   7.295621  celldm(2)=   0.000000  celldm(3)=   0.000000
     celldm(4)=   0.000000  celldm(5)=   0.000000  celldm(6)=   0.000000

     crystal axes: (cart. coord. in units of alat)
               a(1) = (   1.000000   0.000000   0.000000 )  
               a(2) = (   0.000000   1.000000   0.000000 )  
               a(3) = (   0.000000   0.000000   1.052640 )  

     reciprocal axes: (cart. coord. in units 2 pi/alat)
               b(1) = (  1.000000  0.000000  0.000000 )  
               b(2) = (  0.000000  1.000000  0.000000 )  
               b(3) = (  0.000000  0.000000  0.949992 )  


     PseudoPot. # 1 for Pb read from file:
     ./pseudos/Pb.pz-d-van.UPF
     MD5 check sum: 7d60cbfc971891b50292ee40cb29912a
     Pseudo is Ultrasoft, Zval = 14.0
     Generated by new atomic code, or converted to UPF format
     Using radial grid of  899 points,  6 beta functions with: 
                l(1) =   0
                l(2) =   0
                l(3) =   1
                l(4) =   1
                l(5) =   2
                l(6) =   2
     Q(r) pseudized with  8 coefficients,  rinner =    1.000   1.000   1.000
                                                       1.000   1.000

     PseudoPot. # 2 for Ti read from file:
     ./pseudos/Ti.pz-sp-van_ak.UPF
     MD5 check sum: 93c5ef60b250b0ab110b997ad8a4342c
     Pseudo is Ultrasoft, Zval = 12.0
     Generated by new atomic code, or converted to UPF format
     Using radial grid of  851 points,  6 beta functions with: 
                l(1) =   0
                l(2) =   0
                l(3) =   1
                l(4) =   1
                l(5) =   2
                l(6) =   2
     Q(r) pseudized with  8 coefficients,  rinner =    1.000   1.000   1.000
                                                       1.000   1.000

     PseudoPot. # 3 for O  read from file:
     ./pseudos/O.pz-van_ak.UPF
     MD5 check sum: b77f3d8cfe972ebbeca95ec6abb46c7c
     Pseudo is Ultrasoft, Zval =  6.0
     Generated by new atomic code, or converted to UPF format
     Using radial grid of  737 points,  4 beta functions with: 
                l(1) =   0
                l(2) =   0
                l(3) =   1
                l(4) =   1
     Q(r) pseudized with  8 coefficients,  rinner =    0.800   0.800   0.800


     atomic species   valence    mass     pseudopotential
     Pb               14.00   207.20000     Pb( 1.00)
     Ti               12.00    47.86700     Ti( 1.00)
     O                 6.00    15.99900     O ( 1.00)

     No symmetry found



   Cartesian axes

     site n.     atom                  positions (alat units)
         1        Pb     tau(   1) = (   0.0000000   0.0000000  -0.0005897  )
         2        Ti     tau(   2) = (   0.5000000   0.5000000   0.5658355  )
         3        O      tau(   3) = (   0.5000000   0.5000000   0.1059714  )
         4        O      tau(   4) = (   0.5000000   0.0000000   0.6328204  )
         5        O      tau(   5) = (   0.0000000   0.5000000   0.6328204  )

     number of k points=    80
                       cart. coord. in units 2pi/alat
        k(    1) = (   0.0625000   0.0625000  -0.4749961), wk =   0.0156250
        k(    2) = (   0.0625000   0.0625000  -0.3392829), wk =   0.0156250
        k(    3) = (   0.0625000   0.0625000  -0.2035698), wk =   0.0156250
        k(    4) = (   0.0625000   0.0625000  -0.0678566), wk =   0.0156250
        k(    5) = (   0.0625000   0.0625000   0.0678566), wk =   0.0156250
        k(    6) = (   0.0625000   0.0625000   0.2035698), wk =   0.0156250
        k(    7) = (   0.0625000   0.0625000   0.3392829), wk =   0.0156250
        k(    8) = (   0.0625000   0.0625000   0.4749961), wk =   0.0156250
        k(    9) = (   0.0625000   0.1875000  -0.4749961), wk =   0.0312500
        k(   10) = (   0.0625000   0.1875000  -0.3392829), wk =   0.0312500
        k(   11) = (   0.0625000   0.1875000  -0.2035698), wk =   0.0312500
        k(   12) = (   0.0625000   0.1875000  -0.0678566), wk =   0.0312500
        k(   13) = (   0.0625000   0.1875000   0.0678566), wk =   0.0312500
        k(   14) = (   0.0625000   0.1875000   0.2035698), wk =   0.0312500
        k(   15) = (   0.0625000   0.1875000   0.3392829), wk =   0.0312500
        k(   16) = (   0.0625000   0.1875000   0.4749961), wk =   0.0312500
        k(   17) = (   0.0625000   0.3125000  -0.4749961), wk =   0.0312500
        k(   18) = (   0.0625000   0.3125000  -0.3392829), wk =   0.0312500
        k(   19) = (   0.0625000   0.3125000  -0.2035698), wk =   0.0312500
        k(   20) = (   0.0625000   0.3125000  -0.0678566), wk =   0.0312500
        k(   21) = (   0.0625000   0.3125000   0.0678566), wk =   0.0312500
        k(   22) = (   0.0625000   0.3125000   0.2035698), wk =   0.0312500
        k(   23) = (   0.0625000   0.3125000   0.3392829), wk =   0.0312500
        k(   24) = (   0.0625000   0.3125000   0.4749961), wk =   0.0312500
        k(   25) = (   0.0625000   0.4375000  -0.4749961), wk =   0.0312500
        k(   26) = (   0.0625000   0.4375000  -0.3392829), wk =   0.0312500
        k(   27) = (   0.0625000   0.4375000  -0.2035698), wk =   0.0312500
        k(   28) = (   0.0625000   0.4375000  -0.0678566), wk =   0.0312500
        k(   29) = (   0.0625000   0.4375000   0.0678566), wk =   0.0312500
        k(   30) = (   0.0625000   0.4375000   0.2035698), wk =   0.0312500
        k(   31) = (   0.0625000   0.4375000   0.3392829), wk =   0.0312500
        k(   32) = (   0.0625000   0.4375000   0.4749961), wk =   0.0312500
        k(   33) = (   0.1875000   0.1875000  -0.4749961), wk =   0.0156250
        k(   34) = (   0.1875000   0.1875000  -0.3392829), wk =   0.0156250
        k(   35) = (   0.1875000   0.1875000  -0.2035698), wk =   0.0156250
        k(   36) = (   0.1875000   0.1875000  -0.0678566), wk =   0.0156250
        k(   37) = (   0.1875000   0.1875000   0.0678566), wk =   0.0156250
        k(   38) = (   0.1875000   0.1875000   0.2035698), wk =   0.0156250
        k(   39) = (   0.1875000   0.1875000   0.3392829), wk =   0.0156250
        k(   40) = (   0.1875000   0.1875000   0.4749961), wk =   0.0156250
        k(   41) = (   0.1875000   0.3125000  -0.4749961), wk =   0.0312500
        k(   42) = (   0.1875000   0.3125000  -0.3392829), wk =   0.0312500
        k(   43) = (   0.1875000   0.3125000  -0.2035698), wk =   0.0312500
        k(   44) = (   0.1875000   0.3125000  -0.0678566), wk =   0.0312500
        k(   45) = (   0.1875000   0.3125000   0.0678566), wk =   0.0312500
        k(   46) = (   0.1875000   0.3125000   0.2035698), wk =   0.0312500
        k(   47) = (   0.1875000   0.3125000   0.3392829), wk =   0.0312500
        k(   48) = (   0.1875000   0.3125000   0.4749961), wk =   0.0312500
        k(   49) = (   0.1875000   0.4375000  -0.4749961), wk =   0.0312500
        k(   50) = (   0.1875000   0.4375000  -0.3392829), wk =   0.0312500
        k(   51) = (   0.1875000   0.4375000  -0.2035698), wk =   0.0312500
        k(   52) = (   0.1875000   0.4375000  -0.0678566), wk =   0.0312500
        k(   53) = (   0.1875000   0.4375000   0.0678566), wk =   0.0312500
        k(   54) = (   0.1875000   0.4375000   0.2035698), wk =   0.0312500
        k(   55) = (   0.1875000   0.4375000   0.3392829), wk =   0.0312500
        k(   56) = (   0.1875000   0.4375000   0.4749961), wk =   0.0312500
        k(   57) = (   0.3125000   0.3125000  -0.4749961), wk =   0.0156250
        k(   58) = (   0.3125000   0.3125000  -0.3392829), wk =   0.0156250
        k(   59) = (   0.3125000   0.3125000  -0.2035698), wk =   0.0156250
        k(   60) = (   0.3125000   0.3125000  -0.0678566), wk =   0.0156250
        k(   61) = (   0.3125000   0.3125000   0.0678566), wk =   0.0156250
        k(   62) = (   0.3125000   0.3125000   0.2035698), wk =   0.0156250
        k(   63) = (   0.3125000   0.3125000   0.3392829), wk =   0.0156250
        k(   64) = (   0.3125000   0.3125000   0.4749961), wk =   0.0156250
        k(   65) = (   0.3125000   0.4375000  -0.4749961), wk =   0.0312500
        k(   66) = (   0.3125000   0.4375000  -0.3392829), wk =   0.0312500
        k(   67) = (   0.3125000   0.4375000  -0.2035698), wk =   0.0312500
        k(   68) = (   0.3125000   0.4375000  -0.0678566), wk =   0.0312500
        k(   69) = (   0.3125000   0.4375000   0.0678566), wk =   0.0312500
        k(   70) = (   0.3125000   0.4375000   0.2035698), wk =   0.0312500
        k(   71) = (   0.3125000   0.4375000   0.3392829), wk =   0.0312500
        k(   72) = (   0.3125000   0.4375000   0.4749961), wk =   0.0312500
        k(   73) = (   0.4375000   0.4375000  -0.4749961), wk =   0.0156250
        k(   74) = (   0.4375000   0.4375000  -0.3392829), wk =   0.0156250
        k(   75) = (   0.4375000   0.4375000  -0.2035698), wk =   0.0156250
        k(   76) = (   0.4375000   0.4375000  -0.0678566), wk =   0.0156250
        k(   77) = (   0.4375000   0.4375000   0.0678566), wk =   0.0156250
        k(   78) = (   0.4375000   0.4375000   0.2035698), wk =   0.0156250
        k(   79) = (   0.4375000   0.4375000   0.3392829), wk =   0.0156250
        k(   80) = (   0.4375000   0.4375000   0.4749961), wk =   0.0156250

     Dense  grid:    72485 G-vectors     FFT dimensions: (  54,  54,  54)

     Smooth grid:    25657 G-vectors     FFT dimensions: (  36,  36,  40)

     Estimated max dynamical RAM per process >     362.77 MB

     Initial potential from superposition of free atoms

     starting charge      42.9982, renormalised to      44.0000
     Starting wfcs are   31 randomized atomic wfcs

     total cpu time spent up to now is        4.1 secs

     Self-consistent Calculation

     iteration #  1     ecut=    60.00 Ry     beta= 0.30
     Davidson diagonalization with overlap
     ethr =  1.00E-02,  avg # of iterations =  1.9

     total cpu time spent up to now is        9.1 secs

     total energy              =    -333.61609533 Ry
     estimated scf accuracy    <       0.99802518 Ry

     iteration #  2     ecut=    60.00 Ry     beta= 0.30
     Davidson diagonalization with overlap
     ethr =  2.27E-03,  avg # of iterations =  2.6

     total cpu time spent up to now is       14.8 secs

     total energy              =    -333.75307049 Ry
     estimated scf accuracy    <       0.10731035 Ry

     iteration #  3     ecut=    60.00 Ry     beta= 0.30
     Davidson diagonalization with overlap
     ethr =  2.44E-04,  avg # of iterations =  4.7

     total cpu time spent up to now is       22.2 secs

     total energy              =    -333.78508747 Ry
     estimated scf accuracy    <       0.13495532 Ry

     iteration #  4     ecut=    60.00 Ry     beta= 0.30
     Davidson diagonalization with overlap
     ethr =  2.44E-04,  avg # of iterations =  1.0

     total cpu time spent up to now is       27.0 secs

     total energy              =    -333.73185650 Ry
     estimated scf accuracy    <       0.07325893 Ry

     iteration #  5     ecut=    60.00 Ry     beta= 0.30
     Davidson diagonalization with overlap
     ethr =  1.66E-04,  avg # of iterations =  5.9

     total cpu time spent up to now is       35.8 secs

     total energy              =    -333.78837202 Ry
     estimated scf accuracy    <       0.34289170 Ry

     iteration #  6     ecut=    60.00 Ry     beta= 0.30
     Davidson diagonalization with overlap
     ethr =  1.66E-04,  avg # of iterations =  3.5

     total cpu time spent up to now is       41.5 secs

     total energy              =    -333.77696826 Ry
     estimated scf accuracy    <       0.15504335 Ry

     iteration #  7     ecut=    60.00 Ry     beta= 0.30
     Davidson diagonalization with overlap
     ethr =  1.66E-04,  avg # of iterations =  3.5

     total cpu time spent up to now is       46.9 secs

     total energy              =    -333.77198336 Ry
     estimated scf accuracy    <       0.07095440 Ry

     iteration #  8     ecut=    60.00 Ry     beta= 0.30
     Davidson diagonalization with overlap
     ethr =  1.61E-04,  avg # of iterations =  3.3

     total cpu time spent up to now is       52.5 secs

     total energy              =    -333.77064119 Ry
     estimated scf accuracy    <       0.01811564 Ry

     iteration #  9     ecut=    60.00 Ry     beta= 0.30
     Davidson diagonalization with overlap
     ethr =  4.12E-05,  avg # of iterations =  5.0

     total cpu time spent up to now is       60.0 secs

     total energy              =    -333.78415436 Ry
     estimated scf accuracy    <       0.01674864 Ry

     iteration # 10     ecut=    60.00 Ry     beta= 0.30
     Davidson diagonalization with overlap
     ethr =  3.81E-05,  avg # of iterations =  1.0

     total cpu time spent up to now is       64.7 secs

     total energy              =    -333.77998728 Ry
     estimated scf accuracy    <       0.01629247 Ry

     iteration # 11     ecut=    60.00 Ry     beta= 0.30
     Davidson diagonalization with overlap
     ethr =  3.70E-05,  avg # of iterations =  1.5

     total cpu time spent up to now is       69.6 secs

     total energy              =    -333.77819600 Ry
     estimated scf accuracy    <       0.00655086 Ry

     iteration # 12     ecut=    60.00 Ry     beta= 0.30
     Davidson diagonalization with overlap
     ethr =  1.49E-05,  avg # of iterations =  4.4

     total cpu time spent up to now is       76.4 secs

     total energy              =    -333.78108527 Ry
     estimated scf accuracy    <       0.00159381 Ry

     iteration # 13     ecut=    60.00 Ry     beta= 0.30
     Davidson diagonalization with overlap
     ethr =  3.62E-06,  avg # of iterations =  1.5

     total cpu time spent up to now is       81.4 secs

     total energy              =    -333.78080319 Ry
     estimated scf accuracy    <       0.00100470 Ry

     iteration # 14     ecut=    60.00 Ry     beta= 0.30
     Davidson diagonalization with overlap
     ethr =  2.28E-06,  avg # of iterations =  3.6

     total cpu time spent up to now is       87.3 secs

     total energy              =    -333.78096430 Ry
     estimated scf accuracy    <       0.00005878 Ry

     iteration # 15     ecut=    60.00 Ry     beta= 0.30
     Davidson diagonalization with overlap
     ethr =  1.34E-07,  avg # of iterations =  4.7

     total cpu time spent up to now is       94.0 secs

     total energy              =    -333.78098410 Ry
     estimated scf accuracy    <       0.00001406 Ry

     iteration # 16     ecut=    60.00 Ry     beta= 0.30
     Davidson diagonalization with overlap
     ethr =  3.20E-08,  avg # of iterations =  2.9

     total cpu time spent up to now is       99.5 secs

     total energy              =    -333.78098107 Ry
     estimated scf accuracy    <       0.00001788 Ry

     iteration # 17     ecut=    60.00 Ry     beta= 0.30
     Davidson diagonalization with overlap
     ethr =  3.20E-08,  avg # of iterations =  2.3

     total cpu time spent up to now is      104.8 secs

     total energy              =    -333.78097766 Ry
     estimated scf accuracy    <       0.00000712 Ry

     iteration # 18     ecut=    60.00 Ry     beta= 0.30
     Davidson diagonalization with overlap
     ethr =  1.62E-08,  avg # of iterations =  6.0

     total cpu time spent up to now is      113.1 secs

     total energy              =    -333.78098408 Ry
     estimated scf accuracy    <       0.00001554 Ry

     iteration # 19     ecut=    60.00 Ry     beta= 0.30
     Davidson diagonalization with overlap
     ethr =  1.62E-08,  avg # of iterations =  1.0

     total cpu time spent up to now is      117.7 secs

     total energy              =    -333.78098133 Ry
     estimated scf accuracy    <       0.00001270 Ry

     iteration # 20     ecut=    60.00 Ry     beta= 0.30
     Davidson diagonalization with overlap
     ethr =  1.62E-08,  avg # of iterations =  3.5

     total cpu time spent up to now is      123.2 secs

     total energy              =    -333.78098144 Ry
     estimated scf accuracy    <       0.00000373 Ry

     iteration # 21     ecut=    60.00 Ry     beta= 0.30
     Davidson diagonalization with overlap
     ethr =  8.47E-09,  avg # of iterations =  4.0

     total cpu time spent up to now is      129.1 secs

     total energy              =    -333.78098195 Ry
     estimated scf accuracy    <       0.00000031 Ry

     iteration # 22     ecut=    60.00 Ry     beta= 0.30
     Davidson diagonalization with overlap
     ethr =  7.04E-10,  avg # of iterations =  4.7

     total cpu time spent up to now is      135.5 secs

     End of self-consistent calculation

          k = 0.0625 0.0625-0.4750 (  3198 PWs)   bands (ev):

   -45.2693 -22.0115 -21.8835 -21.8572  -6.8020  -5.9594  -5.7918  -4.5811
    -4.5370  -4.5025  -4.4093  -4.3498   3.2679   6.3948   6.7236   6.9969
     8.0277   8.0705   8.8634   9.2628   9.5084  10.5235

          k = 0.0625 0.0625-0.3393 (  3207 PWs)   bands (ev):

   -45.2695 -22.0028 -21.8838 -21.8576  -6.8852  -5.9911  -5.8073  -4.5767
    -4.5297  -4.5027  -4.3874  -4.3486   3.4430   6.5868   6.7243   7.0518
     8.0876   8.1268   8.8813   9.2001   9.4863  10.0701

          k = 0.0625 0.0625-0.2036 (  3193 PWs)   bands (ev):

   -45.2698 -21.9832 -21.8845 -21.8583  -7.0635  -6.0534  -5.8505  -4.5670
    -4.5145  -4.5022  -4.3672  -4.3197   3.9149   6.6958   6.7116   7.3793
     8.2506   8.2938   8.8801   9.0119   9.4346   9.5116

          k = 0.0625 0.0625-0.0679 (  3180 PWs)   bands (ev):

   -45.2701 -21.9673 -21.8851 -21.8589  -7.1992  -6.0980  -5.8897  -4.5589
    -4.5081  -4.4961  -4.3706  -4.2800   4.4300   6.6785   6.6920   7.2245
     8.4330   8.5549   8.9200   9.0052   9.3563   9.4119

          k = 0.0625 0.0625 0.0679 (  3180 PWs)   bands (ev):

   -45.2701 -21.9673 -21.8851 -21.8589  -7.1992  -6.0980  -5.8897  -4.5589
    -4.5081  -4.4961  -4.3706  -4.2800   4.4300   6.6785   6.6920   7.2245
     8.4330   8.5549   8.9200   9.0052   9.3563   9.4119

          k = 0.0625 0.0625 0.2036 (  3193 PWs)   bands (ev):

   -45.2698 -21.9832 -21.8845 -21.8583  -7.0635  -6.0534  -5.8505  -4.5670
    -4.5145  -4.5022  -4.3672  -4.3197   3.9149   6.6958   6.7116   7.3793
     8.2506   8.2938   8.8801   9.0119   9.4346   9.5116

          k = 0.0625 0.0625 0.3393 (  3207 PWs)   bands (ev):

   -45.2695 -22.0028 -21.8838 -21.8576  -6.8852  -5.9911  -5.8073  -4.5767
    -4.5297  -4.5027  -4.3874  -4.3486   3.4430   6.5868   6.7243   7.0518
     8.0876   8.1268   8.8813   9.2001   9.4863  10.0701

          k = 0.0625 0.0625 0.4750 (  3198 PWs)   bands (ev):

   -45.2693 -22.0115 -21.8835 -21.8572  -6.8020  -5.9594  -5.7918  -4.5811
    -4.5370  -4.5025  -4.4093  -4.3498   3.2679   6.3948   6.7236   6.9969
     8.0277   8.0705   8.8634   9.2628   9.5084  10.5235

          k = 0.0625 0.1875-0.4750 (  3200 PWs)   bands (ev):

   -45.2688 -22.0102 -21.8828 -21.8796  -6.6606  -5.9863  -5.7424  -4.5800
    -4.5462  -4.5163  -4.3584  -4.2927   3.1395   6.1402   6.7278   7.0410
     7.8291   7.9747   8.6459   9.1614   9.2832  10.3288

          k = 0.0625 0.1875-0.3393 (  3200 PWs)   bands (ev):

   -45.2689 -22.0016 -21.8832 -21.8800  -6.7357  -6.0013  -5.7699  -4.5736
    -4.5509  -4.5145  -4.3552  -4.2869   3.2886   6.2992   6.7795   7.0912
     7.8612   8.0332   8.6271   9.1411   9.2490  10.1495

          k = 0.0625 0.1875-0.2036 (  3206 PWs)   bands (ev):

   -45.2693 -21.9821 -21.8839 -21.8809  -6.9007  -6.0371  -5.8253  -4.5649
    -4.5521  -4.5125  -4.3515  -4.2735   3.6687   6.5086   6.7780   7.2856
     8.0732   8.1951   8.6771   9.0798   9.1521   9.7923

          k = 0.0625 0.1875-0.0679 (  3193 PWs)   bands (ev):

   -45.2696 -21.9664 -21.8845 -21.8815  -7.0293  -6.0683  -5.8643  -4.5665
    -4.5416  -4.5106  -4.3560  -4.2594   4.0355   6.6439   6.7713   7.1055
     8.3483   8.5174   8.8205   8.9783   9.1908   9.5283

          k = 0.0625 0.1875 0.0679 (  3193 PWs)   bands (ev):

   -45.2696 -21.9664 -21.8845 -21.8815  -7.0293  -6.0683  -5.8643  -4.5665
    -4.5416  -4.5106  -4.3560  -4.2594   4.0355   6.6439   6.7713   7.1055
     8.3483   8.5174   8.8205   8.9783   9.1908   9.5283

          k = 0.0625 0.1875 0.2036 (  3206 PWs)   bands (ev):

   -45.2693 -21.9821 -21.8839 -21.8809  -6.9007  -6.0371  -5.8253  -4.5649
    -4.5521  -4.5125  -4.3515  -4.2735   3.6687   6.5086   6.7780   7.2856
     8.0732   8.1951   8.6771   9.0798   9.1521   9.7923

          k = 0.0625 0.1875 0.3393 (  3200 PWs)   bands (ev):

   -45.2689 -22.0016 -21.8832 -21.8800  -6.7357  -6.0013  -5.7699  -4.5736
    -4.5509  -4.5145  -4.3552  -4.2869   3.2886   6.2992   6.7795   7.0912
     7.8612   8.0332   8.6271   9.1411   9.2490  10.1495

          k = 0.0625 0.1875 0.4750 (  3200 PWs)   bands (ev):

   -45.2688 -22.0102 -21.8828 -21.8796  -6.6606  -5.9863  -5.7424  -4.5800
    -4.5462  -4.5163  -4.3584  -4.2927   3.1395   6.1402   6.7278   7.0410
     7.8291   7.9747   8.6459   9.1614   9.2832  10.3288

          k = 0.0625 0.3125-0.4750 (  3192 PWs)   bands (ev):

   -45.2680 -22.0083 -21.9118 -21.8812  -6.4842  -5.9875  -5.6637  -4.5835
    -4.5534  -4.5107  -4.3683  -4.1656   2.9699   5.9012   6.6165   6.9180
     7.4639   7.8831   8.3872   8.8471   9.6761   9.9217

          k = 0.0625 0.3125-0.3393 (  3208 PWs)   bands (ev):

   -45.2682 -21.9998 -21.9123 -21.8815  -6.5324  -5.9995  -5.7084  -4.5791
    -4.5602  -4.5150  -4.3567  -4.1854   3.0870   6.0492   6.6840   6.9617
     7.5172   7.9163   8.4309   8.8276   9.5346  10.0326

          k = 0.0625 0.3125-0.2036 (  3210 PWs)   bands (ev):

   -45.2686 -21.9805 -21.9133 -21.8823  -6.6555  -6.0211  -5.7884  -4.5859
    -4.5585  -4.5214  -4.3382  -4.2284   3.3689   6.2319   6.7688   7.1224
     7.7548   8.0649   8.6240   8.8206   9.2162  10.1333

          k = 0.0625 0.3125-0.0679 (  3210 PWs)   bands (ev):

   -45.2689 -21.9650 -21.9140 -21.8829  -6.7637  -6.0405  -5.8310  -4.5992
    -4.5474  -4.5244  -4.3418  -4.2510   3.6159   6.3128   6.8446   7.0680
     8.0899   8.2823   8.6882   8.9293   9.1657  10.0508

          k = 0.0625 0.3125 0.0679 (  3210 PWs)   bands (ev):

   -45.2689 -21.9650 -21.9140 -21.8829  -6.7637  -6.0405  -5.8310  -4.5992
    -4.5474  -4.5244  -4.3418  -4.2510   3.6159   6.3128   6.8446   7.0680
     8.0899   8.2823   8.6882   8.9293   9.1657  10.0508

          k = 0.0625 0.3125 0.2036 (  3210 PWs)   bands (ev):

   -45.2686 -21.9805 -21.9133 -21.8823  -6.6555  -6.0211  -5.7884  -4.5859
    -4.5585  -4.5214  -4.3382  -4.2284   3.3689   6.2319   6.7688   7.1224
     7.7548   8.0649   8.6240   8.8206   9.2162  10.1333

          k = 0.0625 0.3125 0.3393 (  3208 PWs)   bands (ev):

   -45.2682 -21.9998 -21.9123 -21.8815  -6.5324  -5.9995  -5.7084  -4.5791
    -4.5602  -4.5150  -4.3567  -4.1854   3.0870   6.0493   6.6840   6.9617
     7.5172   7.9163   8.4309   8.8276   9.5346  10.0326

          k = 0.0625 0.3125 0.4750 (  3192 PWs)   bands (ev):

   -45.2680 -22.0083 -21.9118 -21.8812  -6.4842  -5.9875  -5.6637  -4.5835
    -4.5534  -4.5107  -4.3683  -4.1656   2.9699   5.9012   6.6165   6.9180
     7.4639   7.8831   8.3872   8.8471   9.6761   9.9217

          k = 0.0625 0.4375-0.4750 (  3190 PWs)   bands (ev):

   -45.2675 -22.0069 -21.9343 -21.8803  -6.4033  -5.9266  -5.6113  -4.5890
    -4.5523  -4.5121  -4.3653  -4.0895   2.8657   5.7264   6.2849   6.9283
     7.2477   8.0125   8.2314   8.7079   9.5510   9.9479

          k = 0.0625 0.4375-0.3393 (  3197 PWs)   bands (ev):

   -45.2677 -21.9984 -21.9347 -21.8806  -6.4151  -5.9518  -5.6728  -4.5872
    -4.5574  -4.5204  -4.3469  -4.1282   2.9635   5.8133   6.4660   6.8814
     7.3848   7.9570   8.3145   8.7234   9.5668   9.9825

          k = 0.0625 0.4375-0.2036 (  3209 PWs)   bands (ev):

   -45.2680 -21.9793 -21.9359 -21.8814  -6.4698  -6.0027  -5.7740  -4.5991
    -4.5559  -4.5300  -4.3145  -4.2180   3.1935   5.8791   6.7871   7.0902
     7.6117   7.8459   8.5804   8.8301   9.2089  10.3778

          k = 0.0625 0.4375-0.0679 (  3219 PWs)   bands (ev):

   -45.2683 -21.9639 -21.9368 -21.8820  -6.5426  -6.0406  -5.8147  -4.6175
    -4.5463  -4.5341  -4.3162  -4.2716   3.3883   5.8919   6.9386   7.3021
     7.7237   7.9668   8.6801   8.8574   9.2185  10.6895

          k = 0.0625 0.4375 0.0679 (  3219 PWs)   bands (ev):

   -45.2683 -21.9639 -21.9368 -21.8820  -6.5426  -6.0406  -5.8147  -4.6175
    -4.5463  -4.5341  -4.3162  -4.2716   3.3883   5.8919   6.9386   7.3021
     7.7237   7.9668   8.6801   8.8574   9.2185  10.6895

          k = 0.0625 0.4375 0.2036 (  3209 PWs)   bands (ev):

   -45.2680 -21.9793 -21.9359 -21.8814  -6.4698  -6.0027  -5.7740  -4.5991
    -4.5559  -4.5300  -4.3145  -4.2180   3.1935   5.8791   6.7871   7.0902
     7.6117   7.8459   8.5804   8.8301   9.2089  10.3778

          k = 0.0625 0.4375 0.3393 (  3197 PWs)   bands (ev):

   -45.2677 -21.9984 -21.9347 -21.8806  -6.4151  -5.9518  -5.6728  -4.5872
    -4.5574  -4.5204  -4.3469  -4.1282   2.9635   5.8133   6.4660   6.8814
     7.3848   7.9570   8.3145   8.7234   9.5668   9.9825

          k = 0.0625 0.4375 0.4750 (  3190 PWs)   bands (ev):

   -45.2675 -22.0069 -21.9343 -21.8803  -6.4033  -5.9266  -5.6113  -4.5890
    -4.5523  -4.5121  -4.3653  -4.0895   2.8657   5.7264   6.2849   6.9283
     7.2477   8.0125   8.2314   8.7079   9.5510   9.9479

          k = 0.1875 0.1875-0.4750 (  3214 PWs)   bands (ev):

   -45.2683 -22.0090 -21.9045 -21.8790  -6.5779  -5.9520  -5.7271  -4.5694
    -4.5353  -4.4708  -4.3339  -4.2499   3.1358   6.1364   6.2163   6.7903
     7.6114   7.7947   8.6844   9.2746   9.4887   9.9701

          k = 0.1875 0.1875-0.3393 (  3205 PWs)   bands (ev):

   -45.2684 -22.0005 -21.9049 -21.8793  -6.6377  -5.9672  -5.7563  -4.5656
    -4.5412  -4.4862  -4.3289  -4.2476   3.2549   6.2275   6.3516   6.8930
     7.6305   7.7976   8.7310   9.2465   9.4579   9.9093

          k = 0.1875 0.1875-0.2036 (  3200 PWs)   bands (ev):

   -45.2688 -21.9811 -21.9057 -21.8802  -6.7785  -6.0009  -5.8093  -4.5641
    -4.5491  -4.5034  -4.3298  -4.2458   3.5304   6.4360   6.4909   7.2299
     7.7712   7.9138   8.7621   9.1518   9.3709   9.7359

          k = 0.1875 0.1875-0.0679 (  3201 PWs)   bands (ev):

   -45.2691 -21.9655 -21.9063 -21.8808  -6.8949  -6.0271  -5.8436  -4.5762
    -4.5412  -4.5066  -4.3376  -4.2476   3.7506   6.6141   6.7599   7.1832
     7.9358   8.0724   8.8671   8.9801   9.3041   9.7380

          k = 0.1875 0.1875 0.0679 (  3201 PWs)   bands (ev):

   -45.2691 -21.9655 -21.9063 -21.8808  -6.8949  -6.0271  -5.8436  -4.5762
    -4.5412  -4.5066  -4.3376  -4.2476   3.7506   6.6141   6.7599   7.1832
     7.9358   8.0724   8.8671   8.9801   9.3041   9.7380

          k = 0.1875 0.1875 0.2036 (  3200 PWs)   bands (ev):

   -45.2688 -21.9811 -21.9057 -21.8802  -6.7785  -6.0009  -5.8093  -4.5641
    -4.5491  -4.5034  -4.3298  -4.2458   3.5304   6.4360   6.4909   7.2299
     7.7712   7.9138   8.7621   9.1518   9.3709   9.7359

          k = 0.1875 0.1875 0.3393 (  3205 PWs)   bands (ev):

   -45.2684 -22.0005 -21.9049 -21.8793  -6.6377  -5.9672  -5.7563  -4.5656
    -4.5412  -4.4862  -4.3289  -4.2476   3.2549   6.2275   6.3516   6.8930
     7.6305   7.7976   8.7310   9.2466   9.4579   9.9093

          k = 0.1875 0.1875 0.4750 (  3214 PWs)   bands (ev):

   -45.2683 -22.0090 -21.9045 -21.8790  -6.5779  -5.9520  -5.7271  -4.5694
    -4.5353  -4.4708  -4.3339  -4.2499   3.1358   6.1364   6.2163   6.7903
     7.6114   7.7947   8.6844   9.2746   9.4887   9.9701

          k = 0.1875 0.3125-0.4750 (  3216 PWs)   bands (ev):

   -45.2675 -22.0073 -21.9109 -21.9030  -6.3691  -5.9935  -5.7032  -4.5738
    -4.5120  -4.4305  -4.3112  -4.1351   3.1040   5.8174   6.1539   6.4808
     6.7809   7.7731   8.9210   9.2773   9.4231   9.7354

          k = 0.1875 0.3125-0.3393 (  3209 PWs)   bands (ev):

   -45.2677 -21.9987 -21.9113 -21.9034  -6.4134  -5.9913  -5.7472  -4.5745
    -4.5215  -4.4497  -4.3035  -4.1558   3.1784   5.9591   6.1454   6.6734
     6.8858   7.7926   8.9334   9.2347   9.5253   9.6893

          k = 0.1875 0.3125-0.2036 (  3213 PWs)   bands (ev):

   -45.2681 -21.9796 -21.9123 -21.9042  -6.5308  -5.9921  -5.8145  -4.5799
    -4.5388  -4.4767  -4.3006  -4.2033   3.3241   6.1913   6.2941   6.9085
     7.3889   7.9184   8.7282   9.1662   9.4156   9.8936

          k = 0.1875 0.3125-0.0679 (  3213 PWs)   bands (ev):

   -45.2683 -21.9641 -21.9130 -21.9048  -6.6378  -6.0030  -5.8383  -4.5918
    -4.5420  -4.4911  -4.3103  -4.2389   3.4118   6.3090   6.7205   7.1185
     7.6170   7.9855   8.5141   9.0968   9.3699  10.0907

          k = 0.1875 0.3125 0.0679 (  3213 PWs)   bands (ev):

   -45.2683 -21.9641 -21.9130 -21.9048  -6.6378  -6.0030  -5.8383  -4.5918
    -4.5420  -4.4911  -4.3103  -4.2389   3.4118   6.3090   6.7205   7.1185
     7.6170   7.9855   8.5141   9.0968   9.3699  10.0907

          k = 0.1875 0.3125 0.2036 (  3213 PWs)   bands (ev):

   -45.2681 -21.9796 -21.9123 -21.9042  -6.5308  -5.9921  -5.8145  -4.5799
    -4.5388  -4.4767  -4.3006  -4.2033   3.3241   6.1913   6.2941   6.9085
     7.3889   7.9184   8.7282   9.1662   9.4156   9.8936

          k = 0.1875 0.3125 0.3393 (  3209 PWs)   bands (ev):

   -45.2677 -21.9987 -21.9113 -21.9034  -6.4134  -5.9913  -5.7472  -4.5745
    -4.5215  -4.4497  -4.3035  -4.1558   3.1784   5.9591   6.1454   6.6734
     6.8858   7.7926   8.9334   9.2347   9.5253   9.6893

          k = 0.1875 0.3125 0.4750 (  3216 PWs)   bands (ev):

   -45.2675 -22.0073 -21.9109 -21.9030  -6.3691  -5.9935  -5.7032  -4.5738
    -4.5120  -4.4305  -4.3112  -4.1351   3.1040   5.8174   6.1539   6.4808
     6.7809   7.7731   8.9210   9.2773   9.4231   9.7354

          k = 0.1875 0.4375-0.4750 (  3198 PWs)   bands (ev):

   -45.2670 -22.0059 -21.9333 -21.9021  -6.2564  -5.9768  -5.6898  -4.5712
    -4.4767  -4.4077  -4.3055  -4.0596   3.0772   5.6773   5.9373   6.1870
     6.5616   7.8538   8.6549   9.1999   9.2098   9.9576

          k = 0.1875 0.4375-0.3393 (  3208 PWs)   bands (ev):

   -45.2672 -21.9974 -21.9337 -21.9025  -6.2688  -5.9828  -5.7463  -4.5730
    -4.4951  -4.4219  -4.2959  -4.0989   3.1197   5.7890   5.9474   6.2928
     6.8075   7.8842   8.7463   9.2131   9.3197   9.7995

          k = 0.1875 0.4375-0.2036 (  3206 PWs)   bands (ev):

   -45.2675 -21.9783 -21.9347 -21.9033  -6.3363  -5.9955  -5.8245  -4.5811
    -4.5263  -4.4448  -4.2871  -4.1897   3.1864   5.8857   6.1568   6.7194
     7.3436   8.0425   8.4772   9.1997   9.4429   9.8822

          k = 0.1875 0.4375-0.0679 (  3216 PWs)   bands (ev):

   -45.2678 -21.9629 -21.9356 -21.9039  -6.4268  -6.0098  -5.8361  -4.5957
    -4.5373  -4.4624  -4.2926  -4.2581   3.2103   5.9090   6.6924   7.1958
     7.5711   7.8836   8.2399   9.2161   9.3279  10.3391

          k = 0.1875 0.4375 0.0679 (  3216 PWs)   bands (ev):

   -45.2678 -21.9629 -21.9356 -21.9039  -6.4268  -6.0098  -5.8361  -4.5957
    -4.5373  -4.4624  -4.2926  -4.2581   3.2103   5.9090   6.6924   7.1958
     7.5711   7.8836   8.2399   9.2161   9.3279  10.3391

          k = 0.1875 0.4375 0.2036 (  3206 PWs)   bands (ev):

   -45.2675 -21.9783 -21.9347 -21.9033  -6.3363  -5.9955  -5.8245  -4.5811
    -4.5263  -4.4448  -4.2871  -4.1897   3.1864   5.8857   6.1568   6.7194
     7.3436   8.0425   8.4772   9.1997   9.4429   9.8822

          k = 0.1875 0.4375 0.3393 (  3208 PWs)   bands (ev):

   -45.2672 -21.9974 -21.9337 -21.9025  -6.2688  -5.9828  -5.7463  -4.5730
    -4.4951  -4.4219  -4.2959  -4.0989   3.1197   5.7890   5.9474   6.2928
     6.8075   7.8842   8.7463   9.2131   9.3197   9.7995

          k = 0.1875 0.4375 0.4750 (  3198 PWs)   bands (ev):

   -45.2670 -22.0059 -21.9333 -21.9021  -6.2564  -5.9768  -5.6898  -4.5712
    -4.4767  -4.4077  -4.3055  -4.0596   3.0772   5.6773   5.9373   6.1870
     6.5616   7.8538   8.6549   9.1999   9.2098   9.9576

          k = 0.3125 0.3125-0.4750 (  3206 PWs)   bands (ev):

   -45.2668 -22.0057 -21.9340 -21.9094  -6.2792  -5.9235  -5.7510  -4.5277
    -4.4783  -4.3399  -4.2106  -4.0930   3.3013   5.5380   5.6422   6.1534
     6.7085   6.9667   8.3444   9.6215   9.7202   9.8856

          k = 0.3125 0.3125-0.3393 (  3196 PWs)   bands (ev):

   -45.2670 -21.9972 -21.9343 -21.9098  -6.2992  -5.9267  -5.7912  -4.5325
    -4.4880  -4.3677  -4.2206  -4.1195   3.2867   5.6699   5.7283   6.3143
     6.8826   7.0063   8.6188   9.5232   9.6702   9.7896

          k = 0.3125 0.3125-0.2036 (  3213 PWs)   bands (ev):

   -45.2673 -21.9781 -21.9352 -21.9107  -6.3787  -5.9596  -5.8132  -4.5481
    -4.5061  -4.4185  -4.2489  -4.1812   3.2142   6.0311   6.1157   6.4711
     7.0692   7.5813   8.8863   9.2133   9.5029   9.7455

          k = 0.3125 0.3125-0.0679 (  3226 PWs)   bands (ev):

   -45.2676 -21.9628 -21.9358 -21.9113  -6.4742  -5.9796  -5.7978  -4.5666
    -4.5156  -4.4525  -4.2731  -4.2334   3.1310   6.3296   6.5083   6.8805
     7.4267   7.6933   8.5146   8.8375   9.7032   9.9212

          k = 0.3125 0.3125 0.0679 (  3226 PWs)   bands (ev):

   -45.2676 -21.9628 -21.9358 -21.9113  -6.4742  -5.9796  -5.7978  -4.5666
    -4.5156  -4.4525  -4.2731  -4.2334   3.1310   6.3296   6.5083   6.8805
     7.4267   7.6933   8.5146   8.8375   9.7032   9.9212

          k = 0.3125 0.3125 0.2036 (  3213 PWs)   bands (ev):

   -45.2673 -21.9781 -21.9352 -21.9107  -6.3787  -5.9596  -5.8132  -4.5481
    -4.5061  -4.4185  -4.2489  -4.1812   3.2142   6.0311   6.1157   6.4711
     7.0692   7.5813   8.8863   9.2133   9.5029   9.7455

          k = 0.3125 0.3125 0.3393 (  3196 PWs)   bands (ev):

   -45.2670 -21.9972 -21.9343 -21.9098  -6.2992  -5.9267  -5.7912  -4.5325
    -4.4880  -4.3677  -4.2206  -4.1195   3.2867   5.6699   5.7283   6.3143
     6.8826   7.0063   8.6188   9.5232   9.6702   9.7896

          k = 0.3125 0.3125 0.4750 (  3206 PWs)   bands (ev):

   -45.2668 -22.0057 -21.9340 -21.9094  -6.2792  -5.9235  -5.7510  -4.5277
    -4.4783  -4.3399  -4.2106  -4.0930   3.3013   5.5380   5.6422   6.1534
     6.7085   6.9667   8.3444   9.6215   9.7202   9.8856

          k = 0.3125 0.4375-0.4750 (  3204 PWs)   bands (ev):

   -45.2663 -22.0044 -21.9335 -21.9313  -6.0940  -5.9930  -5.7826  -4.5185
    -4.4384  -4.2678  -4.1834  -4.0146   3.4314   5.2858   5.4711   5.8753
     6.4227   6.9807   7.6007   9.8188   9.8688   9.9778

          k = 0.3125 0.4375-0.3393 (  3203 PWs)   bands (ev):

   -45.2664 -21.9959 -21.9338 -21.9317  -6.1003  -5.9879  -5.8294  -4.5243
    -4.4536  -4.2900  -4.2017  -4.0571   3.3336   5.4065   5.6544   5.9333
     6.6372   7.0783   7.9762   9.6917   9.7285   9.9107

          k = 0.3125 0.4375-0.2036 (  3215 PWs)   bands (ev):

   -45.2668 -21.9769 -21.9346 -21.9326  -6.1881  -5.9914  -5.8358  -4.5417
    -4.4847  -4.3381  -4.2419  -4.1526   3.1121   5.8475   5.9509   6.2288
     6.9069   7.6597   8.6140   9.2227   9.3136   9.9149

          k = 0.3125 0.4375-0.0679 (  3222 PWs)   bands (ev):

   -45.2671 -21.9616 -21.9352 -21.9333  -6.3104  -5.9791  -5.7929  -4.5619
    -4.5051  -4.3815  -4.2762  -4.2219   2.9457   5.9193   6.5682   6.7540
     7.3566   7.8511   8.1786   8.8967   9.5662   9.9953

          k = 0.3125 0.4375 0.0679 (  3222 PWs)   bands (ev):

   -45.2671 -21.9616 -21.9352 -21.9333  -6.3104  -5.9791  -5.7929  -4.5619
    -4.5051  -4.3815  -4.2762  -4.2219   2.9457   5.9193   6.5682   6.7540
     7.3565   7.8511   8.1786   8.8967   9.5662   9.9953

          k = 0.3125 0.4375 0.2036 (  3215 PWs)   bands (ev):

   -45.2668 -21.9769 -21.9346 -21.9326  -6.1881  -5.9914  -5.8358  -4.5417
    -4.4847  -4.3381  -4.2419  -4.1526   3.1121   5.8475   5.9509   6.2288
     6.9069   7.6597   8.6140   9.2227   9.3136   9.9149

          k = 0.3125 0.4375 0.3393 (  3203 PWs)   bands (ev):

   -45.2664 -21.9959 -21.9338 -21.9317  -6.1003  -5.9879  -5.8294  -4.5243
    -4.4536  -4.2900  -4.2017  -4.0571   3.3336   5.4065   5.6544   5.9333
     6.6372   7.0783   7.9762   9.6917   9.7285   9.9107

          k = 0.3125 0.4375 0.4750 (  3204 PWs)   bands (ev):

   -45.2663 -22.0044 -21.9335 -21.9313  -6.0940  -5.9930  -5.7826  -4.5185
    -4.4384  -4.2678  -4.1834  -4.0146   3.4314   5.2858   5.4711   5.8753
     6.4227   6.9807   7.6007   9.8188   9.8688   9.9778

          k = 0.4375 0.4375-0.4750 (  3208 PWs)   bands (ev):

   -45.2658 -22.0032 -21.9546 -21.9308  -6.1119  -5.8668  -5.8398  -4.4784
    -4.4244  -4.1604  -4.0908  -3.9857   3.7052   5.1216   5.2478   5.7308
     6.3440   6.4969   6.6855   9.9847  10.1101  10.1755

          k = 0.4375 0.4375-0.3393 (  3216 PWs)   bands (ev):

   -45.2659 -21.9948 -21.9550 -21.9311  -6.0933  -5.9253  -5.8317  -4.4877
    -4.4325  -4.1869  -4.1271  -4.0351   3.4398   5.3441   5.4627   5.7874
     6.3593   6.8112   7.1606   9.7685   9.8922  10.1824

          k = 0.4375 0.4375-0.2036 (  3232 PWs)   bands (ev):

   -45.2663 -21.9757 -21.9558 -21.9320  -6.1418  -6.0025  -5.7650  -4.5150
    -4.4452  -4.2702  -4.1865  -4.1444   3.0131   5.8061   5.9967   6.0404
     6.4097   7.6267   8.1894   9.1169   9.2363  10.1955

          k = 0.4375 0.4375-0.0679 (  3225 PWs)   bands (ev):

   -45.2666 -21.9606 -21.9563 -21.9326  -6.2748  -5.9621  -5.7042  -4.5404
    -4.4539  -4.3522  -4.2586  -4.1948   2.7564   5.8468   6.2855   6.9009
     7.0219   8.0258   8.2311   8.5670   9.1080  10.2089

          k = 0.4375 0.4375 0.0679 (  3225 PWs)   bands (ev):

   -45.2666 -21.9606 -21.9563 -21.9326  -6.2748  -5.9621  -5.7042  -4.5404
    -4.4539  -4.3522  -4.2586  -4.1948   2.7564   5.8468   6.2855   6.9009
     7.0219   8.0258   8.2311   8.5670   9.1080  10.2089

          k = 0.4375 0.4375 0.2036 (  3232 PWs)   bands (ev):

   -45.2663 -21.9757 -21.9558 -21.9320  -6.1418  -6.0025  -5.7650  -4.5150
    -4.4452  -4.2702  -4.1865  -4.1444   3.0131   5.8061   5.9967   6.0404
     6.4097   7.6267   8.1894   9.1169   9.2363  10.1955

          k = 0.4375 0.4375 0.3393 (  3216 PWs)   bands (ev):

   -45.2659 -21.9948 -21.9550 -21.9311  -6.0933  -5.9253  -5.8317  -4.4877
    -4.4325  -4.1869  -4.1271  -4.0351   3.4398   5.3441   5.4627   5.7874
     6.3593   6.8112   7.1606   9.7685   9.8922  10.1824

          k = 0.4375 0.4375 0.4750 (  3208 PWs)   bands (ev):

   -45.2658 -22.0032 -21.9546 -21.9308  -6.1119  -5.8668  -5.8398  -4.4784
    -4.4244  -4.1604  -4.0908  -3.9857   3.7052   5.1216   5.2478   5.7308
     6.3440   6.4969   6.6855   9.9847  10.1101  10.1755

     highest occupied level (ev):    10.6895

!    total energy              =    -333.78098207 Ry
     estimated scf accuracy    <          8.3E-09 Ry

     The total energy is the sum of the following terms:
     one-electron contribution =     -87.11309420 Ry
     hartree contribution      =      70.47793210 Ry
     xc contribution           =     -49.66918036 Ry
     ewald contribution        =    -267.47663961 Ry

     convergence has been achieved in  22 iterations

     Forces acting on atoms (cartesian axes, Ry/au):

     atom    1 type  1   force =     0.00000052    0.00000105   -0.00071146
     atom    2 type  2   force =    -0.00000030   -0.00000030    0.00332654
     atom    3 type  3   force =     0.00000012    0.00000006   -0.01770626
     atom    4 type  3   force =    -0.00000011   -0.00000031   -0.06478457
     atom    5 type  3   force =    -0.00000022   -0.00000051    0.07987576

     Total force =     0.104414     Total SCF correction =     0.000058


     Computing stress (Cartesian axis) and pressure

          total   stress  (Ry/bohr**3)                   (kbar)     P=      -11.40
   0.00126743   0.00015679   0.00000000          186.45       23.06        0.00
   0.00015679  -0.00117783   0.00000000           23.06     -173.27        0.00
   0.00000000   0.00000000  -0.00032209            0.00        0.00      -47.38


     Writing all to output data dir ./tmp_pzt/pzt_polar_zz_0.save/ :
     XML data file, charge density, pseudopotentials, collected wavefunctions

     init_run     :      3.93s CPU      4.03s WALL (       1 calls)
     electrons    :    128.66s CPU    131.40s WALL (       1 calls)
     forces       :      0.89s CPU      0.93s WALL (       1 calls)
     stress       :      5.90s CPU      6.06s WALL (       1 calls)

     Called by init_run:
     wfcinit      :      2.57s CPU      2.62s WALL (       1 calls)
     potinit      :      0.32s CPU      0.32s WALL (       1 calls)
     hinit0       :      0.71s CPU      0.71s WALL (       1 calls)

     Called by electrons:
     c_bands      :    100.52s CPU    101.20s WALL (      22 calls)
     sum_band     :     21.43s CPU     22.51s WALL (      22 calls)
     v_of_rho     :      0.18s CPU      0.18s WALL (      23 calls)
     newd         :      6.64s CPU      7.66s WALL (      23 calls)
     mix_rho      :      0.12s CPU      0.12s WALL (      22 calls)

     Called by c_bands:
     init_us_2    :      4.30s CPU      4.35s WALL (    3760 calls)
     cegterg      :     90.90s CPU     91.52s WALL (    1760 calls)

     Called by *egterg:
     cdiaghg      :      3.03s CPU      3.05s WALL (    7576 calls)
     h_psi        :     70.25s CPU     70.83s WALL (    7656 calls)
     s_psi        :      4.31s CPU      4.33s WALL (    7656 calls)
     g_psi        :      0.77s CPU      0.77s WALL (    5816 calls)

     Called by h_psi:
     h_psi:calbec :      5.14s CPU      5.17s WALL (    7656 calls)
     vloc_psi     :     60.18s CPU     60.70s WALL (    7656 calls)
     add_vuspsi   :      4.47s CPU      4.50s WALL (    7656 calls)

     General routines
     calbec       :      8.03s CPU      8.08s WALL (   10776 calls)
     fft          :      0.33s CPU      0.33s WALL (     141 calls)
     ffts         :      0.26s CPU      0.26s WALL (      45 calls)
     fftw         :     54.59s CPU     55.06s WALL (  245220 calls)
     interpolate  :      0.29s CPU      0.29s WALL (      23 calls)

     Parallel routines

     PWSCF        :   2m19.50s CPU   2m22.69s WALL


   This run was terminated on:  16:41:52  18Nov2025            

=------------------------------------------------------------------------------=
   JOB DONE.
=------------------------------------------------------------------------------=
