
     Program PWSCF v.7.4.1 starts on 18Nov2025 at 16:41:52 

     This program is part of the open-source Quantum ESPRESSO suite
     for quantum simulation of materials; please cite
         "P. Giannozzi et al., J. Phys.:Condens. Matter 21 395502 (2009);
         "P. Giannozzi et al., J. Phys.:Condens. Matter 29 465901 (2017);
         "P. Giannozzi et al., J. Chem. Phys. 152 154105 (2020);
          URL http://www.quantum-espresso.org", 
     in publications or presentations arising from this work. More details at
     http://www.quantum-espresso.org/quote

     Parallel version (MPI), running on     1 processors

     MPI processes distributed on     1 nodes
     4712 MiB available memory on the printing compute node when the environment starts

     Reading input from pzt/polar_fd/pzt_polar_zz_m002.in

     Current dimensions of program PWSCF are:
     Max number of different atomic species (ntypx) = 10
     Max number of k-points (npk) =  40000
     Max angular momentum in pseudopotentials (lmaxx) =  4

     IMPORTANT: XC functional enforced from input :
     Exchange-correlation= LDA
                           (   1   1   0   0   0   0   0)
     Any further DFT definition will be discarded
     Please, verify this is what you really want


     Subspace diagonalization in iterative solution of the eigenvalue problem:
     a serial algorithm will be used


     G-vector sticks info
     --------------------
     sticks:   dense  smooth     PW     G-vecs:    dense   smooth      PW
     Sum        2025    1005    293                72261    25513    4081

     Using Slab Decomposition



     bravais-lattice index     =            0
     lattice parameter (alat)  =       7.2956  a.u.
     unit-cell volume          =     407.0265 (a.u.)^3
     number of atoms/cell      =            5
     number of atomic types    =            3
     number of electrons       =        44.00
     number of Kohn-Sham states=           22
     kinetic-energy cutoff     =      60.0000  Ry
     charge density cutoff     =     480.0000  Ry
     scf convergence threshold =      1.0E-08
     mixing beta               =       0.3000
     number of iterations used =            8  plain     mixing
     Exchange-correlation= LDA
                           (   1   1   0   0   0   0   0)

     celldm(1)=   7.295621  celldm(2)=   0.000000  celldm(3)=   0.000000
     celldm(4)=   0.000000  celldm(5)=   0.000000  celldm(6)=   0.000000

     crystal axes: (cart. coord. in units of alat)
               a(1) = (   1.000000   0.000000   0.000000 )  
               a(2) = (   0.000000   1.000000   0.000000 )  
               a(3) = (   0.000000   0.000000   1.048180 )  

     reciprocal axes: (cart. coord. in units 2 pi/alat)
               b(1) = (  1.000000  0.000000  0.000000 )  
               b(2) = (  0.000000  1.000000  0.000000 )  
               b(3) = (  0.000000  0.000000  0.954035 )  


     PseudoPot. # 1 for Pb read from file:
     ./pseudos/Pb.pz-d-van.UPF
     MD5 check sum: 7d60cbfc971891b50292ee40cb29912a
     Pseudo is Ultrasoft, Zval = 14.0
     Generated by new atomic code, or converted to UPF format
     Using radial grid of  899 points,  6 beta functions with: 
                l(1) =   0
                l(2) =   0
                l(3) =   1
                l(4) =   1
                l(5) =   2
                l(6) =   2
     Q(r) pseudized with  8 coefficients,  rinner =    1.000   1.000   1.000
                                                       1.000   1.000

     PseudoPot. # 2 for Ti read from file:
     ./pseudos/Ti.pz-sp-van_ak.UPF
     MD5 check sum: 93c5ef60b250b0ab110b997ad8a4342c
     Pseudo is Ultrasoft, Zval = 12.0
     Generated by new atomic code, or converted to UPF format
     Using radial grid of  851 points,  6 beta functions with: 
                l(1) =   0
                l(2) =   0
                l(3) =   1
                l(4) =   1
                l(5) =   2
                l(6) =   2
     Q(r) pseudized with  8 coefficients,  rinner =    1.000   1.000   1.000
                                                       1.000   1.000

     PseudoPot. # 3 for O  read from file:
     ./pseudos/O.pz-van_ak.UPF
     MD5 check sum: b77f3d8cfe972ebbeca95ec6abb46c7c
     Pseudo is Ultrasoft, Zval =  6.0
     Generated by new atomic code, or converted to UPF format
     Using radial grid of  737 points,  4 beta functions with: 
                l(1) =   0
                l(2) =   0
                l(3) =   1
                l(4) =   1
     Q(r) pseudized with  8 coefficients,  rinner =    0.800   0.800   0.800


     atomic species   valence    mass     pseudopotential
     Pb               14.00   207.20000     Pb( 1.00)
     Ti               12.00    47.86700     Ti( 1.00)
     O                 6.00    15.99900     O ( 1.00)

     No symmetry found



   Cartesian axes

     site n.     atom                  positions (alat units)
         1        Pb     tau(   1) = (   0.0000000   0.0000000  -0.0005872  )
         2        Ti     tau(   2) = (   0.5000000   0.5000000   0.5634380  )
         3        O      tau(   3) = (   0.5000000   0.5000000   0.1055223  )
         4        O      tau(   4) = (   0.5000000   0.0000000   0.6301391  )
         5        O      tau(   5) = (   0.0000000   0.5000000   0.6301391  )

     number of k points=    80
                       cart. coord. in units 2pi/alat
        k(    1) = (   0.0625000   0.0625000  -0.4770173), wk =   0.0156250
        k(    2) = (   0.0625000   0.0625000  -0.3407266), wk =   0.0156250
        k(    3) = (   0.0625000   0.0625000  -0.2044360), wk =   0.0156250
        k(    4) = (   0.0625000   0.0625000  -0.0681453), wk =   0.0156250
        k(    5) = (   0.0625000   0.0625000   0.0681453), wk =   0.0156250
        k(    6) = (   0.0625000   0.0625000   0.2044360), wk =   0.0156250
        k(    7) = (   0.0625000   0.0625000   0.3407266), wk =   0.0156250
        k(    8) = (   0.0625000   0.0625000   0.4770173), wk =   0.0156250
        k(    9) = (   0.0625000   0.1875000  -0.4770173), wk =   0.0312500
        k(   10) = (   0.0625000   0.1875000  -0.3407266), wk =   0.0312500
        k(   11) = (   0.0625000   0.1875000  -0.2044360), wk =   0.0312500
        k(   12) = (   0.0625000   0.1875000  -0.0681453), wk =   0.0312500
        k(   13) = (   0.0625000   0.1875000   0.0681453), wk =   0.0312500
        k(   14) = (   0.0625000   0.1875000   0.2044360), wk =   0.0312500
        k(   15) = (   0.0625000   0.1875000   0.3407266), wk =   0.0312500
        k(   16) = (   0.0625000   0.1875000   0.4770173), wk =   0.0312500
        k(   17) = (   0.0625000   0.3125000  -0.4770173), wk =   0.0312500
        k(   18) = (   0.0625000   0.3125000  -0.3407266), wk =   0.0312500
        k(   19) = (   0.0625000   0.3125000  -0.2044360), wk =   0.0312500
        k(   20) = (   0.0625000   0.3125000  -0.0681453), wk =   0.0312500
        k(   21) = (   0.0625000   0.3125000   0.0681453), wk =   0.0312500
        k(   22) = (   0.0625000   0.3125000   0.2044360), wk =   0.0312500
        k(   23) = (   0.0625000   0.3125000   0.3407266), wk =   0.0312500
        k(   24) = (   0.0625000   0.3125000   0.4770173), wk =   0.0312500
        k(   25) = (   0.0625000   0.4375000  -0.4770173), wk =   0.0312500
        k(   26) = (   0.0625000   0.4375000  -0.3407266), wk =   0.0312500
        k(   27) = (   0.0625000   0.4375000  -0.2044360), wk =   0.0312500
        k(   28) = (   0.0625000   0.4375000  -0.0681453), wk =   0.0312500
        k(   29) = (   0.0625000   0.4375000   0.0681453), wk =   0.0312500
        k(   30) = (   0.0625000   0.4375000   0.2044360), wk =   0.0312500
        k(   31) = (   0.0625000   0.4375000   0.3407266), wk =   0.0312500
        k(   32) = (   0.0625000   0.4375000   0.4770173), wk =   0.0312500
        k(   33) = (   0.1875000   0.1875000  -0.4770173), wk =   0.0156250
        k(   34) = (   0.1875000   0.1875000  -0.3407266), wk =   0.0156250
        k(   35) = (   0.1875000   0.1875000  -0.2044360), wk =   0.0156250
        k(   36) = (   0.1875000   0.1875000  -0.0681453), wk =   0.0156250
        k(   37) = (   0.1875000   0.1875000   0.0681453), wk =   0.0156250
        k(   38) = (   0.1875000   0.1875000   0.2044360), wk =   0.0156250
        k(   39) = (   0.1875000   0.1875000   0.3407266), wk =   0.0156250
        k(   40) = (   0.1875000   0.1875000   0.4770173), wk =   0.0156250
        k(   41) = (   0.1875000   0.3125000  -0.4770173), wk =   0.0312500
        k(   42) = (   0.1875000   0.3125000  -0.3407266), wk =   0.0312500
        k(   43) = (   0.1875000   0.3125000  -0.2044360), wk =   0.0312500
        k(   44) = (   0.1875000   0.3125000  -0.0681453), wk =   0.0312500
        k(   45) = (   0.1875000   0.3125000   0.0681453), wk =   0.0312500
        k(   46) = (   0.1875000   0.3125000   0.2044360), wk =   0.0312500
        k(   47) = (   0.1875000   0.3125000   0.3407266), wk =   0.0312500
        k(   48) = (   0.1875000   0.3125000   0.4770173), wk =   0.0312500
        k(   49) = (   0.1875000   0.4375000  -0.4770173), wk =   0.0312500
        k(   50) = (   0.1875000   0.4375000  -0.3407266), wk =   0.0312500
        k(   51) = (   0.1875000   0.4375000  -0.2044360), wk =   0.0312500
        k(   52) = (   0.1875000   0.4375000  -0.0681453), wk =   0.0312500
        k(   53) = (   0.1875000   0.4375000   0.0681453), wk =   0.0312500
        k(   54) = (   0.1875000   0.4375000   0.2044360), wk =   0.0312500
        k(   55) = (   0.1875000   0.4375000   0.3407266), wk =   0.0312500
        k(   56) = (   0.1875000   0.4375000   0.4770173), wk =   0.0312500
        k(   57) = (   0.3125000   0.3125000  -0.4770173), wk =   0.0156250
        k(   58) = (   0.3125000   0.3125000  -0.3407266), wk =   0.0156250
        k(   59) = (   0.3125000   0.3125000  -0.2044360), wk =   0.0156250
        k(   60) = (   0.3125000   0.3125000  -0.0681453), wk =   0.0156250
        k(   61) = (   0.3125000   0.3125000   0.0681453), wk =   0.0156250
        k(   62) = (   0.3125000   0.3125000   0.2044360), wk =   0.0156250
        k(   63) = (   0.3125000   0.3125000   0.3407266), wk =   0.0156250
        k(   64) = (   0.3125000   0.3125000   0.4770173), wk =   0.0156250
        k(   65) = (   0.3125000   0.4375000  -0.4770173), wk =   0.0312500
        k(   66) = (   0.3125000   0.4375000  -0.3407266), wk =   0.0312500
        k(   67) = (   0.3125000   0.4375000  -0.2044360), wk =   0.0312500
        k(   68) = (   0.3125000   0.4375000  -0.0681453), wk =   0.0312500
        k(   69) = (   0.3125000   0.4375000   0.0681453), wk =   0.0312500
        k(   70) = (   0.3125000   0.4375000   0.2044360), wk =   0.0312500
        k(   71) = (   0.3125000   0.4375000   0.3407266), wk =   0.0312500
        k(   72) = (   0.3125000   0.4375000   0.4770173), wk =   0.0312500
        k(   73) = (   0.4375000   0.4375000  -0.4770173), wk =   0.0156250
        k(   74) = (   0.4375000   0.4375000  -0.3407266), wk =   0.0156250
        k(   75) = (   0.4375000   0.4375000  -0.2044360), wk =   0.0156250
        k(   76) = (   0.4375000   0.4375000  -0.0681453), wk =   0.0156250
        k(   77) = (   0.4375000   0.4375000   0.0681453), wk =   0.0156250
        k(   78) = (   0.4375000   0.4375000   0.2044360), wk =   0.0156250
        k(   79) = (   0.4375000   0.4375000   0.3407266), wk =   0.0156250
        k(   80) = (   0.4375000   0.4375000   0.4770173), wk =   0.0156250

     Dense  grid:    72261 G-vectors     FFT dimensions: (  54,  54,  54)

     Smooth grid:    25513 G-vectors     FFT dimensions: (  36,  36,  40)

     Estimated max dynamical RAM per process >     361.58 MB

     Initial potential from superposition of free atoms

     starting charge      42.9982, renormalised to      44.0000
     Starting wfcs are   31 randomized atomic wfcs

     total cpu time spent up to now is        4.1 secs

     Self-consistent Calculation

     iteration #  1     ecut=    60.00 Ry     beta= 0.30
     Davidson diagonalization with overlap
     ethr =  1.00E-02,  avg # of iterations =  1.9

     total cpu time spent up to now is        9.1 secs

     total energy              =    -333.61749104 Ry
     estimated scf accuracy    <       0.99538373 Ry

     iteration #  2     ecut=    60.00 Ry     beta= 0.30
     Davidson diagonalization with overlap
     ethr =  2.26E-03,  avg # of iterations =  2.7

     total cpu time spent up to now is       14.9 secs

     total energy              =    -333.75393748 Ry
     estimated scf accuracy    <       0.10699351 Ry

     iteration #  3     ecut=    60.00 Ry     beta= 0.30
     Davidson diagonalization with overlap
     ethr =  2.43E-04,  avg # of iterations =  4.7

     total cpu time spent up to now is       22.4 secs

     total energy              =    -333.78313962 Ry
     estimated scf accuracy    <       0.12903916 Ry

     iteration #  4     ecut=    60.00 Ry     beta= 0.30
     Davidson diagonalization with overlap
     ethr =  2.43E-04,  avg # of iterations =  1.1

     total cpu time spent up to now is       27.1 secs

     total energy              =    -333.73717543 Ry
     estimated scf accuracy    <       0.06438485 Ry

     iteration #  5     ecut=    60.00 Ry     beta= 0.30
     Davidson diagonalization with overlap
     ethr =  1.46E-04,  avg # of iterations =  5.9

     total cpu time spent up to now is       35.8 secs

     total energy              =    -333.78819098 Ry
     estimated scf accuracy    <       0.32296767 Ry

     iteration #  6     ecut=    60.00 Ry     beta= 0.30
     Davidson diagonalization with overlap
     ethr =  1.46E-04,  avg # of iterations =  3.7

     total cpu time spent up to now is       41.6 secs

     total energy              =    -333.78214445 Ry
     estimated scf accuracy    <       0.13635436 Ry

     iteration #  7     ecut=    60.00 Ry     beta= 0.30
     Davidson diagonalization with overlap
     ethr =  1.46E-04,  avg # of iterations =  2.3

     total cpu time spent up to now is       46.7 secs

     total energy              =    -333.75951403 Ry
     estimated scf accuracy    <       0.08334253 Ry

     iteration #  8     ecut=    60.00 Ry     beta= 0.30
     Davidson diagonalization with overlap
     ethr =  1.46E-04,  avg # of iterations =  4.3

     total cpu time spent up to now is       53.4 secs

     total energy              =    -333.78215015 Ry
     estimated scf accuracy    <       0.00339962 Ry

     iteration #  9     ecut=    60.00 Ry     beta= 0.30
     Davidson diagonalization with overlap
     ethr =  7.73E-06,  avg # of iterations =  4.6

     total cpu time spent up to now is       60.0 secs

     total energy              =    -333.78295751 Ry
     estimated scf accuracy    <       0.00798093 Ry

     iteration # 10     ecut=    60.00 Ry     beta= 0.30
     Davidson diagonalization with overlap
     ethr =  7.73E-06,  avg # of iterations =  1.0

     total cpu time spent up to now is       64.7 secs

     total energy              =    -333.78034578 Ry
     estimated scf accuracy    <       0.00826920 Ry

     iteration # 11     ecut=    60.00 Ry     beta= 0.30
     Davidson diagonalization with overlap
     ethr =  7.73E-06,  avg # of iterations =  4.8

     total cpu time spent up to now is       71.6 secs

     total energy              =    -333.78134316 Ry
     estimated scf accuracy    <       0.00024108 Ry

     iteration # 12     ecut=    60.00 Ry     beta= 0.30
     Davidson diagonalization with overlap
     ethr =  5.48E-07,  avg # of iterations =  5.8

     total cpu time spent up to now is       79.9 secs

     total energy              =    -333.78147862 Ry
     estimated scf accuracy    <       0.00058886 Ry

     iteration # 13     ecut=    60.00 Ry     beta= 0.30
     Davidson diagonalization with overlap
     ethr =  5.48E-07,  avg # of iterations =  1.4

     total cpu time spent up to now is       84.7 secs

     total energy              =    -333.78127276 Ry
     estimated scf accuracy    <       0.00035978 Ry

     iteration # 14     ecut=    60.00 Ry     beta= 0.30
     Davidson diagonalization with overlap
     ethr =  5.48E-07,  avg # of iterations =  6.1

     total cpu time spent up to now is       93.5 secs

     total energy              =    -333.78148314 Ry
     estimated scf accuracy    <       0.00052701 Ry

     iteration # 15     ecut=    60.00 Ry     beta= 0.30
     Davidson diagonalization with overlap
     ethr =  5.48E-07,  avg # of iterations =  1.0

     total cpu time spent up to now is       98.3 secs

     total energy              =    -333.78141837 Ry
     estimated scf accuracy    <       0.00032884 Ry

     iteration # 16     ecut=    60.00 Ry     beta= 0.30
     Davidson diagonalization with overlap
     ethr =  5.48E-07,  avg # of iterations =  2.8

     total cpu time spent up to now is      104.0 secs

     total energy              =    -333.78144890 Ry
     estimated scf accuracy    <       0.00003981 Ry

     iteration # 17     ecut=    60.00 Ry     beta= 0.30
     Davidson diagonalization with overlap
     ethr =  9.05E-08,  avg # of iterations =  4.4

     total cpu time spent up to now is      110.3 secs

     total energy              =    -333.78145559 Ry
     estimated scf accuracy    <       0.00000289 Ry

     iteration # 18     ecut=    60.00 Ry     beta= 0.30
     Davidson diagonalization with overlap
     ethr =  6.56E-09,  avg # of iterations =  4.9

     total cpu time spent up to now is      117.1 secs

     total energy              =    -333.78145690 Ry
     estimated scf accuracy    <       0.00000023 Ry

     iteration # 19     ecut=    60.00 Ry     beta= 0.30
     Davidson diagonalization with overlap
     ethr =  5.16E-10,  avg # of iterations =  4.8

     total cpu time spent up to now is      124.5 secs

     total energy              =    -333.78145707 Ry
     estimated scf accuracy    <       0.00000012 Ry

     iteration # 20     ecut=    60.00 Ry     beta= 0.30
     Davidson diagonalization with overlap
     ethr =  2.70E-10,  avg # of iterations =  4.7

     total cpu time spent up to now is      131.5 secs

     total energy              =    -333.78145702 Ry
     estimated scf accuracy    <       0.00000067 Ry

     iteration # 21     ecut=    60.00 Ry     beta= 0.30
     Davidson diagonalization with overlap
     ethr =  2.70E-10,  avg # of iterations =  2.3

     total cpu time spent up to now is      136.7 secs

     total energy              =    -333.78145684 Ry
     estimated scf accuracy    <       0.00000046 Ry

     iteration # 22     ecut=    60.00 Ry     beta= 0.30
     Davidson diagonalization with overlap
     ethr =  2.70E-10,  avg # of iterations =  6.2

     total cpu time spent up to now is      145.6 secs

     total energy              =    -333.78145699 Ry
     estimated scf accuracy    <       0.00000007 Ry

     iteration # 23     ecut=    60.00 Ry     beta= 0.30
     Davidson diagonalization with overlap
     ethr =  1.64E-10,  avg # of iterations =  1.0

     total cpu time spent up to now is      150.5 secs

     total energy              =    -333.78145697 Ry
     estimated scf accuracy    <       0.00000005 Ry

     iteration # 24     ecut=    60.00 Ry     beta= 0.30
     Davidson diagonalization with overlap
     ethr =  1.24E-10,  avg # of iterations =  4.3

     total cpu time spent up to now is      156.9 secs

     End of self-consistent calculation

          k = 0.0625 0.0625-0.4770 (  3190 PWs)   bands (ev):

   -45.1835 -21.9393 -21.7989 -21.7731  -6.7428  -5.9004  -5.7307  -4.5071
    -4.4627  -4.4276  -4.3325  -4.2737   3.3272   6.4269   6.7658   7.0433
     8.0782   8.1219   8.9243   9.3268   9.5705  10.6208

          k = 0.0625 0.0625-0.3407 (  3190 PWs)   bands (ev):

   -45.1837 -21.9302 -21.7993 -21.7734  -6.8281  -5.9327  -5.7482  -4.5024
    -4.4553  -4.4278  -4.3103  -4.2726   3.5050   6.6269   6.7677   7.0994
     8.1390   8.1763   8.9434   9.2643   9.5477  10.1576

          k = 0.0625 0.0625-0.2044 (  3181 PWs)   bands (ev):

   -45.1841 -21.9094 -21.8000 -21.7742  -7.0114  -5.9966  -5.7952  -4.4921
    -4.4397  -4.4274  -4.2936  -4.2401   3.9843   6.7444   6.7572   7.4420
     8.3047   8.3421   8.9448   9.0749   9.4952   9.5803

          k = 0.0625 0.0625-0.0681 (  3169 PWs)   bands (ev):

   -45.1844 -21.8926 -21.8007 -21.7748  -7.1511  -6.0425  -5.8371  -4.4836
    -4.4334  -4.4210  -4.2985  -4.1987   4.5081   6.7302   6.7400   7.2946
     8.4902   8.6062   8.9841   9.0665   9.4192   9.4724

          k = 0.0625 0.0625 0.0681 (  3169 PWs)   bands (ev):

   -45.1844 -21.8926 -21.8007 -21.7748  -7.1511  -6.0425  -5.8371  -4.4836
    -4.4334  -4.4210  -4.2985  -4.1987   4.5081   6.7302   6.7400   7.2946
     8.4902   8.6062   8.9841   9.0665   9.4192   9.4724

          k = 0.0625 0.0625 0.2044 (  3181 PWs)   bands (ev):

   -45.1841 -21.9094 -21.8000 -21.7742  -7.0114  -5.9966  -5.7952  -4.4921
    -4.4397  -4.4274  -4.2936  -4.2401   3.9843   6.7444   6.7572   7.4420
     8.3047   8.3421   8.9448   9.0749   9.4952   9.5803

          k = 0.0625 0.0625 0.3407 (  3190 PWs)   bands (ev):

   -45.1837 -21.9302 -21.7993 -21.7734  -6.8281  -5.9327  -5.7482  -4.5024
    -4.4553  -4.4278  -4.3103  -4.2726   3.5050   6.6269   6.7677   7.0994
     8.1390   8.1763   8.9434   9.2643   9.5477  10.1576

          k = 0.0625 0.0625 0.4770 (  3190 PWs)   bands (ev):

   -45.1835 -21.9393 -21.7989 -21.7731  -6.7428  -5.9004  -5.7307  -4.5071
    -4.4627  -4.4276  -4.3325  -4.2737   3.3272   6.4269   6.7658   7.0433
     8.0782   8.1219   8.9243   9.3268   9.5705  10.6208

          k = 0.0625 0.1875-0.4770 (  3188 PWs)   bands (ev):

   -45.1830 -21.9380 -21.7984 -21.7955  -6.6019  -5.9273  -5.6816  -4.5062
    -4.4704  -4.4415  -4.2827  -4.2147   3.1976   6.1754   6.7692   7.0977
     7.8807   8.0188   8.7047   9.2240   9.3414  10.4199

          k = 0.0625 0.1875-0.3407 (  3189 PWs)   bands (ev):

   -45.1832 -21.9289 -21.7987 -21.7959  -6.6789  -5.9428  -5.7114  -4.4995
    -4.4753  -4.4397  -4.2800  -4.2085   3.3488   6.3419   6.8232   7.1485
     7.9123   8.0782   8.6849   9.2039   9.3088  10.2355

          k = 0.0625 0.1875-0.2044 (  3191 PWs)   bands (ev):

   -45.1836 -21.9083 -21.7995 -21.7968  -6.8487  -5.9798  -5.7708  -4.4899
    -4.4773  -4.4376  -4.2777  -4.1939   3.7340   6.5621   6.8260   7.3521
     8.1258   8.2429   8.7326   9.1429   9.2135   9.8659

          k = 0.0625 0.1875-0.0681 (  3182 PWs)   bands (ev):

   -45.1839 -21.8917 -21.8001 -21.7975  -6.9813  -6.0121  -5.8120  -4.4915
    -4.4666  -4.4358  -4.2832  -4.1789   4.1047   6.7032   6.8233   7.1752
     8.4040   8.5678   8.8837   9.0387   9.2524   9.5947

          k = 0.0625 0.1875 0.0681 (  3182 PWs)   bands (ev):

   -45.1839 -21.8917 -21.8001 -21.7975  -6.9813  -6.0121  -5.8120  -4.4915
    -4.4666  -4.4358  -4.2832  -4.1789   4.1047   6.7032   6.8233   7.1752
     8.4040   8.5678   8.8837   9.0387   9.2524   9.5947

          k = 0.0625 0.1875 0.2044 (  3191 PWs)   bands (ev):

   -45.1836 -21.9083 -21.7995 -21.7968  -6.8487  -5.9798  -5.7708  -4.4899
    -4.4773  -4.4376  -4.2777  -4.1939   3.7340   6.5621   6.8260   7.3521
     8.1258   8.2429   8.7326   9.1429   9.2135   9.8659

          k = 0.0625 0.1875 0.3407 (  3189 PWs)   bands (ev):

   -45.1832 -21.9289 -21.7987 -21.7959  -6.6789  -5.9428  -5.7114  -4.4995
    -4.4753  -4.4397  -4.2800  -4.2085   3.3488   6.3419   6.8232   7.1485
     7.9123   8.0782   8.6849   9.2039   9.3088  10.2355

          k = 0.0625 0.1875 0.4770 (  3188 PWs)   bands (ev):

   -45.1830 -21.9380 -21.7984 -21.7955  -6.6019  -5.9273  -5.6816  -4.5062
    -4.4704  -4.4415  -4.2827  -4.2147   3.1976   6.1754   6.7692   7.0977
     7.8807   8.0188   8.7047   9.2240   9.3414  10.4199

          k = 0.0625 0.3125-0.4770 (  3178 PWs)   bands (ev):

   -45.1823 -21.9361 -21.8279 -21.7966  -6.4270  -5.9277  -5.6035  -4.5095
    -4.4779  -4.4352  -4.2925  -4.0859   3.0266   5.9421   6.6725   6.9619
     7.5138   7.9318   8.4360   8.9101   9.7305  10.0083

          k = 0.0625 0.3125-0.3407 (  3196 PWs)   bands (ev):

   -45.1824 -21.9271 -21.8284 -21.7970  -6.4764  -5.9403  -5.6507  -4.5046
    -4.4849  -4.4399  -4.2809  -4.1060   3.1451   6.0991   6.7385   7.0087
     7.5639   7.9683   8.4792   8.8906   9.6007  10.1080

          k = 0.0625 0.3125-0.2044 (  3193 PWs)   bands (ev):

   -45.1828 -21.9067 -21.8294 -21.7978  -6.6035  -5.9630  -5.7349  -4.5108
    -4.4838  -4.4467  -4.2631  -4.1494   3.4300   6.2934   6.8227   7.1782
     7.8044   8.1185   8.6783   8.8826   9.2826  10.2037

          k = 0.0625 0.3125-0.0681 (  3196 PWs)   bands (ev):

   -45.1831 -21.8903 -21.8303 -21.7984  -6.7158  -5.9834  -5.7793  -4.5247
    -4.4722  -4.4499  -4.2678  -4.1717   3.6790   6.3784   6.9027   7.1274
     8.1462   8.3386   8.7505   8.9883   9.2312  10.1174

          k = 0.0625 0.3125 0.0681 (  3196 PWs)   bands (ev):

   -45.1831 -21.8903 -21.8303 -21.7984  -6.7158  -5.9834  -5.7793  -4.5247
    -4.4722  -4.4499  -4.2678  -4.1717   3.6790   6.3784   6.9027   7.1274
     8.1462   8.3386   8.7505   8.9883   9.2312  10.1174

          k = 0.0625 0.3125 0.2044 (  3193 PWs)   bands (ev):

   -45.1828 -21.9067 -21.8294 -21.7978  -6.6035  -5.9630  -5.7349  -4.5108
    -4.4838  -4.4467  -4.2631  -4.1494   3.4300   6.2934   6.8227   7.1782
     7.8044   8.1185   8.6783   8.8826   9.2826  10.2037

          k = 0.0625 0.3125 0.3407 (  3196 PWs)   bands (ev):

   -45.1824 -21.9271 -21.8284 -21.7970  -6.4764  -5.9403  -5.6507  -4.5046
    -4.4849  -4.4399  -4.2809  -4.1060   3.1451   6.0991   6.7385   7.0087
     7.5639   7.9683   8.4792   8.8906   9.6007  10.1080

          k = 0.0625 0.3125 0.4770 (  3178 PWs)   bands (ev):

   -45.1823 -21.9361 -21.8279 -21.7966  -6.4270  -5.9277  -5.6035  -4.5095
    -4.4779  -4.4352  -4.2925  -4.0859   3.0266   5.9421   6.6725   6.9619
     7.5138   7.9318   8.4360   8.9101   9.7305  10.0083

          k = 0.0625 0.4375-0.4770 (  3178 PWs)   bands (ev):

   -45.1817 -21.9347 -21.8504 -21.7957  -6.3476  -5.8654  -5.5517  -4.5147
    -4.4771  -4.4365  -4.2891  -4.0085   2.9216   5.7772   6.3320   6.9789
     7.2871   8.0681   8.2819   8.7655   9.6213  10.0140

          k = 0.0625 0.4375-0.3407 (  3187 PWs)   bands (ev):

   -45.1819 -21.9257 -21.8509 -21.7960  -6.3600  -5.8915  -5.6162  -4.5124
    -4.4824  -4.4455  -4.2703  -4.0481   3.0205   5.8728   6.5116   6.9314
     7.4255   8.0137   8.3672   8.7804   9.6476  10.0394

          k = 0.0625 0.4375-0.2044 (  3196 PWs)   bands (ev):

   -45.1823 -21.9055 -21.8521 -21.7969  -6.4178  -5.9438  -5.7217  -4.5240
    -4.4812  -4.4557  -4.2376  -4.1400   3.2527   5.9436   6.8391   7.1453
     7.6626   7.8987   8.6399   8.8875   9.2805  10.4427

          k = 0.0625 0.4375-0.0681 (  3199 PWs)   bands (ev):

   -45.1826 -21.8891 -21.8531 -21.7975  -6.4951  -5.9828  -5.7632  -4.5431
    -4.4711  -4.4598  -4.2408  -4.1937   3.4490   5.9568   6.9945   7.3628
     7.7893   8.0204   8.7378   8.9172   9.2853  10.7595

          k = 0.0625 0.4375 0.0681 (  3199 PWs)   bands (ev):

   -45.1826 -21.8891 -21.8531 -21.7975  -6.4951  -5.9828  -5.7632  -4.5431
    -4.4711  -4.4598  -4.2408  -4.1937   3.4490   5.9568   6.9945   7.3628
     7.7893   8.0204   8.7378   8.9172   9.2853  10.7595

          k = 0.0625 0.4375 0.2044 (  3196 PWs)   bands (ev):

   -45.1823 -21.9055 -21.8521 -21.7969  -6.4178  -5.9438  -5.7217  -4.5240
    -4.4812  -4.4557  -4.2376  -4.1400   3.2527   5.9436   6.8391   7.1454
     7.6626   7.8987   8.6399   8.8875   9.2805  10.4427

          k = 0.0625 0.4375 0.3407 (  3187 PWs)   bands (ev):

   -45.1819 -21.9257 -21.8509 -21.7960  -6.3600  -5.8915  -5.6162  -4.5124
    -4.4824  -4.4455  -4.2703  -4.0481   3.0205   5.8728   6.5116   6.9314
     7.4255   8.0137   8.3672   8.7804   9.6476  10.0394

          k = 0.0625 0.4375 0.4770 (  3178 PWs)   bands (ev):

   -45.1817 -21.9347 -21.8504 -21.7957  -6.3476  -5.8654  -5.5517  -4.5147
    -4.4771  -4.4365  -4.2891  -4.0085   2.9216   5.7772   6.3320   6.9789
     7.2871   8.0681   8.2819   8.7655   9.6213  10.0140

          k = 0.1875 0.1875-0.4770 (  3210 PWs)   bands (ev):

   -45.1825 -21.9369 -21.8201 -21.7949  -6.5189  -5.8939  -5.6664  -4.4950
    -4.4599  -4.3942  -4.2591  -4.1712   3.1935   6.1773   6.2498   6.8446
     7.6717   7.8543   8.7252   9.3361   9.5457  10.0543

          k = 0.1875 0.1875-0.3407 (  3190 PWs)   bands (ev):

   -45.1827 -21.9278 -21.8204 -21.7953  -6.5805  -5.9094  -5.6979  -4.4911
    -4.4659  -4.4103  -4.2544  -4.1687   3.3142   6.2704   6.3945   6.9452
     7.6898   7.8570   8.7752   9.3085   9.5153   9.9924

          k = 0.1875 0.1875-0.2044 (  3192 PWs)   bands (ev):

   -45.1830 -21.9073 -21.8213 -21.7962  -6.7258  -5.9442  -5.7546  -4.4891
    -4.4743  -4.4283  -4.2562  -4.1662   3.5926   6.4845   6.5441   7.2920
     7.8297   7.9724   8.8159   9.2157   9.4273   9.8073

          k = 0.1875 0.1875-0.0681 (  3192 PWs)   bands (ev):

   -45.1834 -21.8908 -21.8220 -21.7969  -6.8464  -5.9715  -5.7906  -4.5017
    -4.4661  -4.4315  -4.2649  -4.1677   3.8133   6.6671   6.8239   7.2526
     7.9932   8.1316   8.9298   9.0456   9.3586   9.8000

          k = 0.1875 0.1875 0.0681 (  3192 PWs)   bands (ev):

   -45.1834 -21.8908 -21.8220 -21.7969  -6.8464  -5.9715  -5.7906  -4.5017
    -4.4661  -4.4315  -4.2649  -4.1677   3.8133   6.6671   6.8239   7.2526
     7.9932   8.1316   8.9298   9.0456   9.3586   9.8000

          k = 0.1875 0.1875 0.2044 (  3192 PWs)   bands (ev):

   -45.1830 -21.9073 -21.8213 -21.7962  -6.7258  -5.9442  -5.7546  -4.4891
    -4.4743  -4.4283  -4.2562  -4.1662   3.5926   6.4845   6.5441   7.2920
     7.8297   7.9724   8.8159   9.2157   9.4273   9.8073

          k = 0.1875 0.1875 0.3407 (  3190 PWs)   bands (ev):

   -45.1827 -21.9278 -21.8204 -21.7953  -6.5805  -5.9094  -5.6979  -4.4911
    -4.4659  -4.4103  -4.2544  -4.1687   3.3142   6.2704   6.3945   6.9452
     7.6898   7.8570   8.7752   9.3085   9.5153   9.9924

          k = 0.1875 0.1875 0.4770 (  3210 PWs)   bands (ev):

   -45.1825 -21.9369 -21.8201 -21.7949  -6.5189  -5.8939  -5.6664  -4.4950
    -4.4599  -4.3942  -4.2591  -4.1712   3.1935   6.1773   6.2498   6.8446
     7.6717   7.8543   8.7252   9.3361   9.5457  10.0543

          k = 0.1875 0.3125-0.4770 (  3200 PWs)   bands (ev):

   -45.1817 -21.9351 -21.8270 -21.8186  -6.3112  -5.9349  -5.6426  -4.4991
    -4.4366  -4.3538  -4.2359  -4.0553   3.1609   5.8584   6.2007   6.5193
     6.8405   7.8361   8.9641   9.3364   9.4931   9.8003

          k = 0.1875 0.3125-0.3407 (  3195 PWs)   bands (ev):

   -45.1819 -21.9260 -21.8274 -21.8189  -6.3568  -5.9329  -5.6891  -4.4996
    -4.4463  -4.3739  -4.2281  -4.0764   3.2361   6.0056   6.1932   6.7206
     6.9386   7.8549   8.9852   9.2926   9.5939   9.7554

          k = 0.1875 0.3125-0.2044 (  3200 PWs)   bands (ev):

   -45.1823 -21.9057 -21.8284 -21.8198  -6.4786  -5.9342  -5.7600  -4.5050
    -4.4639  -4.4018  -4.2260  -4.1245   3.3821   6.2494   6.3446   6.9629
     7.4460   7.9798   8.7947   9.2258   9.4732   9.9619

          k = 0.1875 0.3125-0.0681 (  3198 PWs)   bands (ev):

   -45.1826 -21.8893 -21.8292 -21.8205  -6.5901  -5.9462  -5.7846  -4.5174
    -4.4670  -4.4163  -4.2371  -4.1601   3.4684   6.3726   6.7788   7.1808
     7.6800   8.0443   8.5814   9.1610   9.4269  10.1562

          k = 0.1875 0.3125 0.0681 (  3198 PWs)   bands (ev):

   -45.1826 -21.8893 -21.8292 -21.8205  -6.5901  -5.9462  -5.7846  -4.5174
    -4.4670  -4.4163  -4.2371  -4.1601   3.4684   6.3726   6.7788   7.1808
     7.6800   8.0443   8.5814   9.1610   9.4269  10.1562

          k = 0.1875 0.3125 0.2044 (  3200 PWs)   bands (ev):

   -45.1823 -21.9057 -21.8284 -21.8198  -6.4786  -5.9342  -5.7600  -4.5050
    -4.4639  -4.4018  -4.2260  -4.1245   3.3821   6.2494   6.3446   6.9629
     7.4460   7.9798   8.7947   9.2258   9.4732   9.9619

          k = 0.1875 0.3125 0.3407 (  3195 PWs)   bands (ev):

   -45.1819 -21.9260 -21.8274 -21.8189  -6.3568  -5.9329  -5.6891  -4.4996
    -4.4463  -4.3739  -4.2281  -4.0764   3.2361   6.0056   6.1932   6.7206
     6.9386   7.8549   8.9852   9.2926   9.5939   9.7554

          k = 0.1875 0.3125 0.4770 (  3200 PWs)   bands (ev):

   -45.1817 -21.9351 -21.8270 -21.8186  -6.3112  -5.9349  -5.6426  -4.4991
    -4.4366  -4.3538  -4.2359  -4.0553   3.1609   5.8584   6.2007   6.5193
     6.8405   7.8361   8.9641   9.3364   9.4931   9.8003

          k = 0.1875 0.4375-0.4770 (  3188 PWs)   bands (ev):

   -45.1812 -21.9337 -21.8494 -21.8177  -6.2004  -5.9166  -5.6292  -4.4964
    -4.4005  -4.3330  -4.2286  -3.9786   3.1332   5.7239   5.9856   6.2406
     6.5968   7.9167   8.7171   9.2510   9.2660  10.0260

          k = 0.1875 0.4375-0.3407 (  3198 PWs)   bands (ev):

   -45.1814 -21.9247 -21.8499 -21.8180  -6.2134  -5.9229  -5.6886  -4.4982
    -4.4192  -4.3478  -4.2188  -4.0190   3.1760   5.8451   5.9939   6.3426
     6.8476   7.9461   8.8140   9.2646   9.3815   9.8652

          k = 0.1875 0.4375-0.2044 (  3198 PWs)   bands (ev):

   -45.1818 -21.9045 -21.8510 -21.8189  -6.2847  -5.9363  -5.7702  -4.5062
    -4.4513  -4.3710  -4.2103  -4.1122   3.2418   5.9496   6.2059   6.7702
     7.3991   8.1017   8.5492   9.2587   9.5044   9.9499

          k = 0.1875 0.4375-0.0681 (  3206 PWs)   bands (ev):

   -45.1821 -21.8882 -21.8519 -21.8195  -6.3806  -5.9514  -5.7815  -4.5214
    -4.4624  -4.3883  -4.2175  -4.1812   3.2638   5.9740   6.7483   7.2551
     7.6396   7.9483   8.2988   9.2806   9.3857  10.4147

          k = 0.1875 0.4375 0.0681 (  3206 PWs)   bands (ev):

   -45.1821 -21.8882 -21.8519 -21.8195  -6.3806  -5.9514  -5.7815  -4.5214
    -4.4624  -4.3883  -4.2175  -4.1812   3.2638   5.9740   6.7483   7.2551
     7.6396   7.9483   8.2988   9.2806   9.3857  10.4147

          k = 0.1875 0.4375 0.2044 (  3198 PWs)   bands (ev):

   -45.1818 -21.9045 -21.8510 -21.8189  -6.2847  -5.9363  -5.7702  -4.5062
    -4.4513  -4.3710  -4.2103  -4.1122   3.2418   5.9496   6.2059   6.7702
     7.3991   8.1017   8.5492   9.2587   9.5044   9.9499

          k = 0.1875 0.4375 0.3407 (  3198 PWs)   bands (ev):

   -45.1814 -21.9247 -21.8499 -21.8180  -6.2134  -5.9229  -5.6886  -4.4982
    -4.4192  -4.3478  -4.2188  -4.0190   3.1760   5.8451   5.9939   6.3426
     6.8476   7.9461   8.8140   9.2646   9.3815   9.8652

          k = 0.1875 0.4375 0.4770 (  3188 PWs)   bands (ev):

   -45.1812 -21.9337 -21.8494 -21.8177  -6.2004  -5.9166  -5.6292  -4.4964
    -4.4005  -4.3330  -4.2286  -3.9786   3.1332   5.7239   5.9856   6.2406
     6.5968   7.9167   8.7171   9.2510   9.2660  10.0260

          k = 0.3125 0.3125-0.4770 (  3186 PWs)   bands (ev):

   -45.1810 -21.9334 -21.8496 -21.8255  -6.2205  -5.8665  -5.6897  -4.4525
    -4.4024  -4.2638  -4.1340  -4.0128   3.3581   5.5772   5.6880   6.1946
     6.7633   7.0305   8.4032   9.6815   9.7782   9.9471

          k = 0.3125 0.3125-0.3407 (  3192 PWs)   bands (ev):

   -45.1812 -21.9245 -21.8500 -21.8259  -6.2413  -5.8696  -5.7326  -4.4572
    -4.4125  -4.2920  -4.1449  -4.0397   3.3428   5.7139   5.7717   6.3676
     6.9352   7.0666   8.6844   9.5853   9.7321   9.8492

          k = 0.3125 0.3125-0.2044 (  3200 PWs)   bands (ev):

   -45.1816 -21.9043 -21.8509 -21.8268  -6.3254  -5.9036  -5.7565  -4.4732
    -4.4313  -4.3432  -4.1750  -4.1026   3.2668   6.0832   6.1666   6.5313
     7.1288   7.6402   8.9620   9.2810   9.5666   9.8020

          k = 0.3125 0.3125-0.0681 (  3209 PWs)   bands (ev):

   -45.1819 -21.8880 -21.8516 -21.8275  -6.4264  -5.9237  -5.7409  -4.4925
    -4.4407  -4.3774  -4.2003  -4.1560   3.1803   6.3931   6.5695   6.9410
     7.4807   7.7648   8.5828   8.9075   9.7604   9.9925

          k = 0.3125 0.3125 0.0681 (  3209 PWs)   bands (ev):

   -45.1819 -21.8880 -21.8516 -21.8275  -6.4264  -5.9237  -5.7409  -4.4925
    -4.4407  -4.3774  -4.2003  -4.1560   3.1803   6.3931   6.5695   6.9410
     7.4807   7.7648   8.5828   8.9075   9.7604   9.9925

          k = 0.3125 0.3125 0.2044 (  3200 PWs)   bands (ev):

   -45.1816 -21.9043 -21.8509 -21.8268  -6.3254  -5.9036  -5.7565  -4.4732
    -4.4313  -4.3432  -4.1750  -4.1026   3.2668   6.0832   6.1666   6.5313
     7.1288   7.6402   8.9620   9.2810   9.5666   9.8020

          k = 0.3125 0.3125 0.3407 (  3192 PWs)   bands (ev):

   -45.1812 -21.9245 -21.8500 -21.8259  -6.2413  -5.8696  -5.7326  -4.4572
    -4.4125  -4.2920  -4.1449  -4.0397   3.3428   5.7139   5.7717   6.3676
     6.9352   7.0666   8.6844   9.5853   9.7321   9.8492

          k = 0.3125 0.3125 0.4770 (  3186 PWs)   bands (ev):

   -45.1810 -21.9334 -21.8496 -21.8255  -6.2205  -5.8665  -5.6897  -4.4525
    -4.4024  -4.2638  -4.1340  -4.0128   3.3581   5.5772   5.6880   6.1946
     6.7633   7.0305   8.4032   9.6815   9.7782   9.9471

          k = 0.3125 0.4375-0.4770 (  3194 PWs)   bands (ev):

   -45.1805 -21.9322 -21.8493 -21.8473  -6.0356  -5.9360  -5.7210  -4.4430
    -4.3618  -4.1940  -4.1047  -3.9337   3.4876   5.3292   5.5090   5.9339
     6.4631   7.0406   7.6613   9.8772   9.9256  10.0459

          k = 0.3125 0.4375-0.3407 (  3190 PWs)   bands (ev):

   -45.1807 -21.9232 -21.8497 -21.8477  -6.0426  -5.9303  -5.7708  -4.4489
    -4.3776  -4.2159  -4.1240  -3.9774   3.3876   5.4502   5.6969   5.9939
     6.6854   7.1328   8.0451   9.7548   9.7938   9.9697

          k = 0.3125 0.4375-0.2044 (  3202 PWs)   bands (ev):

   -45.1811 -21.9031 -21.8506 -21.8486  -6.1371  -5.9327  -5.7786  -4.4668
    -4.4097  -4.2634  -4.1658  -4.0760   3.1608   5.9034   6.0073   6.2794
     6.9667   7.7151   8.6988   9.2905   9.3789   9.9723

          k = 0.3125 0.4375-0.0681 (  3215 PWs)   bands (ev):

   -45.1814 -21.8868 -21.8513 -21.8494  -6.2657  -5.9197  -5.7349  -4.4878
    -4.4303  -4.3065  -4.2002  -4.1488   2.9908   5.9841   6.6293   6.8123
     7.4118   7.9225   8.2466   8.9658   9.6425  10.0605

          k = 0.3125 0.4375 0.0681 (  3215 PWs)   bands (ev):

   -45.1814 -21.8868 -21.8513 -21.8494  -6.2657  -5.9197  -5.7349  -4.4878
    -4.4303  -4.3065  -4.2002  -4.1488   2.9908   5.9841   6.6293   6.8123
     7.4118   7.9225   8.2466   8.9658   9.6425  10.0605

          k = 0.3125 0.4375 0.2044 (  3202 PWs)   bands (ev):

   -45.1811 -21.9031 -21.8506 -21.8486  -6.1371  -5.9327  -5.7786  -4.4668
    -4.4097  -4.2634  -4.1658  -4.0760   3.1608   5.9034   6.0073   6.2794
     6.9667   7.7151   8.6988   9.2905   9.3789   9.9723

          k = 0.3125 0.4375 0.3407 (  3190 PWs)   bands (ev):

   -45.1807 -21.9232 -21.8497 -21.8477  -6.0426  -5.9303  -5.7708  -4.4489
    -4.3776  -4.2159  -4.1240  -3.9774   3.3876   5.4502   5.6969   5.9939
     6.6854   7.1328   8.0451   9.7548   9.7938   9.9697

          k = 0.3125 0.4375 0.4770 (  3194 PWs)   bands (ev):

   -45.1805 -21.9322 -21.8493 -21.8473  -6.0356  -5.9360  -5.7210  -4.4430
    -4.3618  -4.1940  -4.1047  -3.9337   3.4876   5.3292   5.5090   5.9339
     6.4631   7.0406   7.6613   9.8772   9.9256  10.0459

          k = 0.4375 0.4375-0.4770 (  3196 PWs)   bands (ev):

   -45.1800 -21.9310 -21.8704 -21.8469  -6.0531  -5.8104  -5.7776  -4.4023
    -4.3481  -4.0873  -4.0104  -3.9045   3.7609   5.1603   5.2836   5.7901
     6.4066   6.5396   6.7426  10.0522  10.1760  10.2321

          k = 0.4375 0.4375-0.3407 (  3203 PWs)   bands (ev):

   -45.1802 -21.9221 -21.8708 -21.8473  -6.0343  -5.8671  -5.7745  -4.4118
    -4.3567  -4.1124  -4.0495  -3.9551   3.4904   5.3849   5.5011   5.8496
     6.4251   6.8501   7.2317   9.8384   9.9606  10.2391

          k = 0.4375 0.4375-0.2044 (  3223 PWs)   bands (ev):

   -45.1805 -21.9019 -21.8717 -21.8482  -6.0903  -5.9435  -5.7072  -4.4400
    -4.3700  -4.1930  -4.1134  -4.0681   3.0569   5.8675   6.0462   6.0883
     6.4721   7.6806   8.2786   9.1884   9.3065  10.2527

          k = 0.4375 0.4375-0.0681 (  3205 PWs)   bands (ev):

   -45.1809 -21.8857 -21.8724 -21.8489  -6.2302  -5.9014  -5.6456  -4.4665
    -4.3790  -4.2759  -4.1829  -4.1243   2.7965   5.9105   6.3510   6.9557
     7.0739   8.0961   8.2995   8.6374   9.2068  10.2666

          k = 0.4375 0.4375 0.0681 (  3205 PWs)   bands (ev):

   -45.1809 -21.8857 -21.8724 -21.8489  -6.2302  -5.9014  -5.6456  -4.4665
    -4.3790  -4.2759  -4.1829  -4.1243   2.7965   5.9105   6.3510   6.9557
     7.0739   8.0961   8.2995   8.6374   9.2068  10.2666

          k = 0.4375 0.4375 0.2044 (  3223 PWs)   bands (ev):

   -45.1805 -21.9019 -21.8717 -21.8482  -6.0903  -5.9435  -5.7072  -4.4400
    -4.3700  -4.1930  -4.1134  -4.0681   3.0569   5.8675   6.0462   6.0883
     6.4721   7.6806   8.2786   9.1884   9.3065  10.2527

          k = 0.4375 0.4375 0.3407 (  3203 PWs)   bands (ev):

   -45.1802 -21.9221 -21.8708 -21.8473  -6.0343  -5.8671  -5.7745  -4.4118
    -4.3567  -4.1124  -4.0495  -3.9551   3.4904   5.3849   5.5011   5.8496
     6.4251   6.8501   7.2317   9.8384   9.9606  10.2391

          k = 0.4375 0.4375 0.4770 (  3196 PWs)   bands (ev):

   -45.1800 -21.9310 -21.8704 -21.8469  -6.0531  -5.8104  -5.7776  -4.4023
    -4.3481  -4.0873  -4.0104  -3.9045   3.7609   5.1603   5.2836   5.7901
     6.4066   6.5396   6.7426  10.0522  10.1760  10.2321

     highest occupied level (ev):    10.7595

!    total energy              =    -333.78145698 Ry
     estimated scf accuracy    <          4.7E-10 Ry

     The total energy is the sum of the following terms:
     one-electron contribution =     -86.52534331 Ry
     hartree contribution      =      70.30076897 Ry
     xc contribution           =     -49.68465868 Ry
     ewald contribution        =    -267.87222395 Ry

     convergence has been achieved in  24 iterations

     Forces acting on atoms (cartesian axes, Ry/au):

     atom    1 type  1   force =    -0.00000000   -0.00000019    0.00007582
     atom    2 type  2   force =    -0.00000001   -0.00000015    0.00841751
     atom    3 type  3   force =     0.00000016    0.00000018   -0.02324741
     atom    4 type  3   force =    -0.00000022    0.00000011   -0.06437383
     atom    5 type  3   force =     0.00000008    0.00000006    0.07912790

     Total force =     0.104960     Total SCF correction =     0.000030


     Computing stress (Cartesian axis) and pressure

          total   stress  (Ry/bohr**3)                   (kbar)     P=       -3.69
   0.00131259   0.00015635  -0.00000000          193.09       23.00       -0.00
   0.00015635  -0.00114965  -0.00000000           23.00     -169.12       -0.00
  -0.00000000  -0.00000000  -0.00023828           -0.00       -0.00      -35.05


     Writing all to output data dir ./tmp_pzt/pzt_polar_zz_0.save/ :
     XML data file, charge density, pseudopotentials, collected wavefunctions

     init_run     :      3.93s CPU      4.03s WALL (       1 calls)
     electrons    :    149.65s CPU    152.76s WALL (       1 calls)
     forces       :      0.86s CPU      0.91s WALL (       1 calls)
     stress       :      5.97s CPU      6.11s WALL (       1 calls)

     Called by init_run:
     wfcinit      :      2.58s CPU      2.62s WALL (       1 calls)
     potinit      :      0.32s CPU      0.32s WALL (       1 calls)
     hinit0       :      0.71s CPU      0.72s WALL (       1 calls)

     Called by electrons:
     c_bands      :    118.90s CPU    119.78s WALL (      24 calls)
     sum_band     :     23.44s CPU     24.62s WALL (      24 calls)
     v_of_rho     :      0.19s CPU      0.19s WALL (      25 calls)
     newd         :      7.20s CPU      8.30s WALL (      25 calls)
     mix_rho      :      0.13s CPU      0.13s WALL (      24 calls)

     Called by c_bands:
     init_us_2    :      4.69s CPU      4.74s WALL (    4080 calls)
     cegterg      :    108.38s CPU    109.17s WALL (    1920 calls)

     Called by *egterg:
     cdiaghg      :      3.67s CPU      3.69s WALL (    8855 calls)
     h_psi        :     82.60s CPU     83.28s WALL (    8935 calls)
     s_psi        :      5.13s CPU      5.17s WALL (    8935 calls)
     g_psi        :      0.94s CPU      0.94s WALL (    6935 calls)

     Called by h_psi:
     h_psi:calbec :      6.33s CPU      6.38s WALL (    8935 calls)
     vloc_psi     :     70.33s CPU     70.91s WALL (    8935 calls)
     add_vuspsi   :      5.39s CPU      5.43s WALL (    8935 calls)

     General routines
     calbec       :      9.40s CPU      9.47s WALL (   12215 calls)
     fft          :      0.34s CPU      0.34s WALL (     153 calls)
     ffts         :      0.27s CPU      0.27s WALL (      49 calls)
     fftw         :     63.01s CPU     63.53s WALL (  284486 calls)
     interpolate  :      0.29s CPU      0.29s WALL (      25 calls)

     Parallel routines

     PWSCF        :   2m40.54s CPU   2m44.09s WALL


   This run was terminated on:  16:44:36  18Nov2025            

=------------------------------------------------------------------------------=
   JOB DONE.
=------------------------------------------------------------------------------=
