
     Program PWSCF v.7.4.1 starts on 12Nov2025 at 21: 1:29 

     This program is part of the open-source Quantum ESPRESSO suite
     for quantum simulation of materials; please cite
         "P. Giannozzi et al., J. Phys.:Condens. Matter 21 395502 (2009);
         "P. Giannozzi et al., J. Phys.:Condens. Matter 29 465901 (2017);
         "P. Giannozzi et al., J. Chem. Phys. 152 154105 (2020);
          URL http://www.quantum-espresso.org", 
     in publications or presentations arising from this work. More details at
     http://www.quantum-espresso.org/quote

     Parallel version (MPI), running on     1 processors

     MPI processes distributed on     1 nodes
     4428 MiB available memory on the printing compute node when the environment starts

     Reading input from quartz/finite_strain/eps_p005_xx.in

     Current dimensions of program PWSCF are:
     Max number of different atomic species (ntypx) = 10
     Max number of k-points (npk) =  40000
     Max angular momentum in pseudopotentials (lmaxx) =  4

     IMPORTANT: XC functional enforced from input :
     Exchange-correlation= LDA
                           (   1   1   0   0   0   0   0)
     Any further DFT definition will be discarded
     Please, verify this is what you really want


     Subspace diagonalization in iterative solution of the eigenvalue problem:
     a serial algorithm will be used


     G-vector sticks info
     --------------------
     sticks:   dense  smooth     PW     G-vecs:    dense   smooth      PW
     Sum        2785    1387    421               135345    47805    7875

     Using Slab Decomposition



     bravais-lattice index     =            0
     lattice parameter (alat)  =       9.3454  a.u.
     unit-cell volume          =     762.0183 (a.u.)^3
     number of atoms/cell      =            9
     number of atomic types    =            2
     number of electrons       =        48.00
     number of Kohn-Sham states=           24
     kinetic-energy cutoff     =      60.0000  Ry
     charge density cutoff     =     480.0000  Ry
     scf convergence threshold =      1.0E-08
     mixing beta               =       0.3000
     number of iterations used =            8  plain     mixing
     Exchange-correlation= LDA
                           (   1   1   0   0   0   0   0)

     celldm(1)=   9.345405  celldm(2)=   0.000000  celldm(3)=   0.000000
     celldm(4)=   0.000000  celldm(5)=   0.000000  celldm(6)=   0.000000

     crystal axes: (cart. coord. in units of alat)
               a(1) = (   0.999751  -0.015585  -0.015945 )  
               a(2) = (  -0.517166   0.840138   0.049515 )  
               a(3) = (  -0.010115   0.059184   1.125407 )  

     reciprocal axes: (cart. coord. in units 2 pi/alat)
               b(1) = (  1.009581  0.622866 -0.023682 )  
               b(2) = (  0.017776  1.204948 -0.063207 )  
               b(3) = (  0.013521 -0.044190  0.891013 )  


     PseudoPot. # 1 for Si read from file:
     ./pseudos/Si.pz-vbc.UPF
     MD5 check sum: 9f25e6ff280f3123e9b3a84715b2e9c9
     Pseudo is Norm-conserving, Zval =  4.0
     Generated by new atomic code, or converted to UPF format
     Using radial grid of  431 points,  2 beta functions with: 
                l(1) =   0
                l(2) =   1

     PseudoPot. # 2 for O  read from file:
     ./pseudos/O.pz-van_ak.UPF
     MD5 check sum: b77f3d8cfe972ebbeca95ec6abb46c7c
     Pseudo is Ultrasoft, Zval =  6.0
     Generated by new atomic code, or converted to UPF format
     Using radial grid of  737 points,  4 beta functions with: 
                l(1) =   0
                l(2) =   0
                l(3) =   1
                l(4) =   1
     Q(r) pseudized with  8 coefficients,  rinner =    0.800   0.800   0.800


     atomic species   valence    mass     pseudopotential
     Si                4.00    28.08550     Si( 1.00)
     O                 6.00    15.99940     O ( 1.00)

     No symmetry found



   Cartesian axes

     site n.     atom                  positions (alat units)
         1        Si     tau(   1) = (   0.4588391  -0.0023775  -0.0045117  )
         2        Si     tau(   2) = (  -0.2549738   0.4734623   0.7551691  )
         3        Si     tau(   3) = (   0.2321601   0.3979938   0.3913498  )
         4        O      tau(   4) = (   0.2433276   0.1047361   0.2290114  )
         5        O      tau(   5) = (   0.5424086   0.4192434   0.4888257  )
         6        O      tau(   6) = (   0.5802448   0.3481635   1.0328162  )
         7        O      tau(   7) = (   0.1730433   0.6734266   0.2176542  )
         8        O      tau(   8) = (   0.0445589   0.3587971   0.6569585  )
         9        O      tau(   9) = (  -0.1297265   0.7615011   0.8686367  )

     number of k points=   112

     Number of k-points >= 100: set verbosity='high' to print them.

     Dense  grid:   135345 G-vectors     FFT dimensions: (  72,  72,  75)

     Smooth grid:    47805 G-vectors     FFT dimensions: (  48,  45,  54)

     Estimated max dynamical RAM per process >     441.62 MB

     Initial potential from superposition of free atoms

     starting charge      47.9985, renormalised to      48.0000
     Starting wfcs are   36 randomized atomic wfcs

     total cpu time spent up to now is       10.3 secs

     Self-consistent Calculation

     iteration #  1     ecut=    60.00 Ry     beta= 0.30
     Davidson diagonalization with overlap
     ethr =  1.00E-02,  avg # of iterations =  2.0

     total cpu time spent up to now is       29.7 secs

     total energy              =    -216.60206437 Ry
     estimated scf accuracy    <       2.34677911 Ry

     iteration #  2     ecut=    60.00 Ry     beta= 0.30
     Davidson diagonalization with overlap
     ethr =  4.89E-03,  avg # of iterations =  2.0

     total cpu time spent up to now is       47.8 secs

     total energy              =    -216.82521729 Ry
     estimated scf accuracy    <       0.26102017 Ry

     iteration #  3     ecut=    60.00 Ry     beta= 0.30
     Davidson diagonalization with overlap
     ethr =  5.44E-04,  avg # of iterations =  3.0

     total cpu time spent up to now is       71.7 secs

     total energy              =    -216.90924690 Ry
     estimated scf accuracy    <       0.09591550 Ry

     iteration #  4     ecut=    60.00 Ry     beta= 0.30
     Davidson diagonalization with overlap
     ethr =  2.00E-04,  avg # of iterations =  3.0

     total cpu time spent up to now is       96.0 secs

     total energy              =    -216.91048120 Ry
     estimated scf accuracy    <       0.16824430 Ry

     iteration #  5     ecut=    60.00 Ry     beta= 0.30
     Davidson diagonalization with overlap
     ethr =  2.00E-04,  avg # of iterations =  2.0

     total cpu time spent up to now is      115.3 secs

     total energy              =    -216.93809307 Ry
     estimated scf accuracy    <       0.00265025 Ry

     iteration #  6     ecut=    60.00 Ry     beta= 0.30
     Davidson diagonalization with overlap
     ethr =  5.52E-06,  avg # of iterations =  5.2

     total cpu time spent up to now is      144.3 secs

     total energy              =    -216.94175568 Ry
     estimated scf accuracy    <       0.00230308 Ry

     iteration #  7     ecut=    60.00 Ry     beta= 0.30
     Davidson diagonalization with overlap
     ethr =  4.80E-06,  avg # of iterations =  1.0

     total cpu time spent up to now is      157.5 secs

     total energy              =    -216.94160311 Ry
     estimated scf accuracy    <       0.00082998 Ry

     iteration #  8     ecut=    60.00 Ry     beta= 0.30
     Davidson diagonalization with overlap
     ethr =  1.73E-06,  avg # of iterations =  1.8

     total cpu time spent up to now is      171.4 secs

     total energy              =    -216.94156535 Ry
     estimated scf accuracy    <       0.00020435 Ry

     iteration #  9     ecut=    60.00 Ry     beta= 0.30
     Davidson diagonalization with overlap
     ethr =  4.26E-07,  avg # of iterations =  2.1

     total cpu time spent up to now is      189.7 secs

     total energy              =    -216.94164178 Ry
     estimated scf accuracy    <       0.00000521 Ry

     iteration # 10     ecut=    60.00 Ry     beta= 0.30
     Davidson diagonalization with overlap
     ethr =  1.09E-08,  avg # of iterations =  4.7

     total cpu time spent up to now is      214.7 secs

     total energy              =    -216.94164565 Ry
     estimated scf accuracy    <       0.00002892 Ry

     iteration # 11     ecut=    60.00 Ry     beta= 0.30
     Davidson diagonalization with overlap
     ethr =  1.09E-08,  avg # of iterations =  1.0

     total cpu time spent up to now is      227.8 secs

     total energy              =    -216.94163243 Ry
     estimated scf accuracy    <       0.00002544 Ry

     iteration # 12     ecut=    60.00 Ry     beta= 0.30
     Davidson diagonalization with overlap
     ethr =  1.09E-08,  avg # of iterations =  4.0

     total cpu time spent up to now is      253.1 secs

     total energy              =    -216.94163842 Ry
     estimated scf accuracy    <       0.00000017 Ry

     iteration # 13     ecut=    60.00 Ry     beta= 0.30
     Davidson diagonalization with overlap
     ethr =  3.53E-10,  avg # of iterations =  5.1

     total cpu time spent up to now is      279.2 secs

     total energy              =    -216.94163846 Ry
     estimated scf accuracy    <       0.00000041 Ry

     iteration # 14     ecut=    60.00 Ry     beta= 0.30
     Davidson diagonalization with overlap
     ethr =  3.53E-10,  avg # of iterations =  2.0

     total cpu time spent up to now is      297.0 secs

     total energy              =    -216.94163844 Ry
     estimated scf accuracy    <       0.00000013 Ry

     iteration # 15     ecut=    60.00 Ry     beta= 0.30
     Davidson diagonalization with overlap
     ethr =  2.67E-10,  avg # of iterations =  1.6

     total cpu time spent up to now is      310.7 secs

     total energy              =    -216.94163846 Ry
     estimated scf accuracy    <       0.00000004 Ry

     iteration # 16     ecut=    60.00 Ry     beta= 0.30
     Davidson diagonalization with overlap
     ethr =  8.69E-11,  avg # of iterations =  2.1

     total cpu time spent up to now is      328.6 secs

     End of self-consistent calculation

     Number of k-points >= 100: set verbosity='high' to print the bands.

     highest occupied level (ev):     2.5968

!    total energy              =    -216.94163844 Ry
     estimated scf accuracy    <          1.0E-09 Ry

     The total energy is the sum of the following terms:
     one-electron contribution =    -102.96404399 Ry
     hartree contribution      =      76.49364317 Ry
     xc contribution           =     -49.48194052 Ry
     ewald contribution        =    -140.98929711 Ry

     convergence has been achieved in  16 iterations

     Writing all to output data dir ./tmp/quartz.save/ :
     XML data file, charge density, pseudopotentials, collected wavefunctions

     init_run     :      9.97s CPU     10.25s WALL (       1 calls)
     electrons    :    316.76s CPU    318.28s WALL (       1 calls)

     Called by init_run:
     wfcinit      :      8.97s CPU      9.18s WALL (       1 calls)
     potinit      :      0.31s CPU      0.31s WALL (       1 calls)
     hinit0       :      0.53s CPU      0.54s WALL (       1 calls)

     Called by electrons:
     c_bands      :    279.08s CPU    280.18s WALL (      16 calls)
     sum_band     :     36.05s CPU     36.36s WALL (      16 calls)
     v_of_rho     :      0.32s CPU      0.33s WALL (      17 calls)
     newd         :      1.09s CPU      1.24s WALL (      17 calls)
     mix_rho      :      0.18s CPU      0.18s WALL (      16 calls)

     Called by c_bands:
     init_us_2    :      6.21s CPU      6.25s WALL (    3696 calls)
     cegterg      :    268.11s CPU    269.15s WALL (    1792 calls)

     Called by *egterg:
     cdiaghg      :      3.55s CPU      3.56s WALL (    6553 calls)
     h_psi        :    221.39s CPU    222.45s WALL (    6665 calls)
     s_psi        :      9.97s CPU     10.01s WALL (    6665 calls)
     g_psi        :      2.05s CPU      2.05s WALL (    4761 calls)

     Called by h_psi:
     h_psi:calbec :     11.94s CPU     12.01s WALL (    6665 calls)
     vloc_psi     :    197.97s CPU    198.83s WALL (    6665 calls)
     add_vuspsi   :     10.39s CPU     10.44s WALL (    6665 calls)

     General routines
     calbec       :     15.53s CPU     15.63s WALL (    8457 calls)
     fft          :      0.70s CPU      0.70s WALL (      99 calls)
     ffts         :      0.27s CPU      0.27s WALL (      33 calls)
     fftw         :    175.40s CPU    176.15s WALL (  316638 calls)
     interpolate  :      0.33s CPU      0.33s WALL (      17 calls)

     Parallel routines

     PWSCF        :   5m26.86s CPU   5m29.00s WALL


   This run was terminated on:  21: 6:58  12Nov2025            

=------------------------------------------------------------------------------=
   JOB DONE.
=------------------------------------------------------------------------------=
[1762981436.191051] [my275instance:19091:0]          ucp_ep.c:1610 UCX  DEBUG ep 0x7f4acc6f0000 flags 0x200091 cfg_index 0: close_nbx(flags=0x0)
[1762981436.194001] [my275instance:19091:0]           flush.c:310  UCX  DEBUG close ep 0x7f4acc6f0000
[1762981436.194062] [my275instance:19091:0]           mpool.c:236  UCX  DEBUG mpool ucp_requests: allocated chunk 0x55eef84c1674 of 41044 bytes with 128 elements
[1762981436.194229] [my275instance:19091:0]          ucp_ep.c:1209 UCX  DEBUG ep 0x7f4acc6f0000: destroy
[1762981436.194241] [my275instance:19091:0]          ucp_ep.c:1459 UCX  DEBUG ep 0x7f4acc6f0000: cleanup lanes
[1762981436.194250] [my275instance:19091:0]          ucp_ep.c:1469 UCX  DEBUG ep 0x7f4acc6f0000: pending & destroy uct_ep[0]=0x55eef8423450
[1762981436.194260] [my275instance:19091:0]          ucp_ep.c:1267 UCX  DEBUG ep 0x7f4acc6f0000: unprogress iface 0x55eef839bc40 self/memory0
[1762981436.194281] [my275instance:19091:0]          ucp_ep.c:1469 UCX  DEBUG ep 0x7f4acc6f0000: pending & destroy uct_ep[1]=0x55eef8423470
[1762981436.194287] [my275instance:19091:0]          ucp_ep.c:1267 UCX  DEBUG ep 0x7f4acc6f0000: unprogress iface 0x55eef845bf20 sysv/memory
[1762981436.194346] [my275instance:19091:0]          ucp_ep.c:1469 UCX  DEBUG ep 0x7f4acc6f0000: pending & destroy uct_ep[2]=0x55eef8423530
[1762981436.194351] [my275instance:19091:0]          ucp_ep.c:1267 UCX  DEBUG ep 0x7f4acc6f0000: unprogress iface 0x55eef8420700 posix/memory
[1762981436.194373] [my275instance:19091:0]          ucp_ep.c:1469 UCX  DEBUG ep 0x7f4acc6f0000: pending & destroy uct_ep[3]=0x55eef8420100
[1762981436.194377] [my275instance:19091:0]          ucp_ep.c:1267 UCX  DEBUG ep 0x7f4acc6f0000: unprogress iface 0x55eef8420f30 cma/memory
[1762981436.194430] [my275instance:19091:0]      ucp_worker.c:2641 UCX  DEBUG destroy worker 0x55eef84390d0
[1762981436.194435] [my275instance:19091:0]      ucp_worker.c:2627 UCX  DEBUG worker 0x55eef84390d0: destroy all endpoints
[1762981436.194439] [my275instance:19091:0]      ucp_worker.c:2627 UCX  DEBUG worker 0x55eef84390d0: destroy internal endpoints
[1762981436.194468] [my275instance:19091:0]      ucp_worker.c:229  UCX  DEBUG worker 0x55eef84390d0: remove active message handlers
[1762981436.194511] [my275instance:19091:0]            sock.c:90   UCX  DEBUG ioctl(req=35142, ifr_name=lo) failed: Operation not supported
[1762981436.194531] [my275instance:19091:0]         tcp_net.c:61   UCX  DEBUG speed of lo is UNKNOWN, assuming 100 Mbps
[1762981436.194623] [my275instance:19091:0]            sock.c:90   UCX  DEBUG ioctl(req=35142, ifr_name=lo) failed: Operation not supported
[1762981436.194632] [my275instance:19091:0]         tcp_net.c:61   UCX  DEBUG speed of lo is UNKNOWN, assuming 100 Mbps
[1762981436.194681] [my275instance:19091:0]            sock.c:90   UCX  DEBUG ioctl(req=35142, ifr_name=lo) failed: Operation not supported
[1762981436.194689] [my275instance:19091:0]         tcp_net.c:61   UCX  DEBUG speed of lo is UNKNOWN, assuming 100 Mbps
[1762981436.194735] [my275instance:19091:0]            sock.c:90   UCX  DEBUG ioctl(req=35142, ifr_name=lo) failed: Operation not supported
[1762981436.194743] [my275instance:19091:0]         tcp_net.c:61   UCX  DEBUG speed of lo is UNKNOWN, assuming 100 Mbps
[1762981436.194789] [my275instance:19091:0]            sock.c:90   UCX  DEBUG ioctl(req=35142, ifr_name=lo) failed: Operation not supported
[1762981436.194809] [my275instance:19091:0]         tcp_net.c:61   UCX  DEBUG speed of lo is UNKNOWN, assuming 100 Mbps
[1762981436.194854] [my275instance:19091:0]            sock.c:90   UCX  DEBUG ioctl(req=35142, ifr_name=lo) failed: Operation not supported
[1762981436.194862] [my275instance:19091:0]         tcp_net.c:61   UCX  DEBUG speed of lo is UNKNOWN, assuming 100 Mbps
[1762981436.194907] [my275instance:19091:0]            sock.c:90   UCX  DEBUG ioctl(req=35142, ifr_name=lo) failed: Operation not supported
[1762981436.194915] [my275instance:19091:0]         tcp_net.c:61   UCX  DEBUG speed of lo is UNKNOWN, assuming 100 Mbps
[1762981436.194959] [my275instance:19091:0]            sock.c:90   UCX  DEBUG ioctl(req=35142, ifr_name=lo) failed: Operation not supported
[1762981436.194966] [my275instance:19091:0]         tcp_net.c:61   UCX  DEBUG speed of lo is UNKNOWN, assuming 100 Mbps
[1762981436.195010] [my275instance:19091:0]            sock.c:90   UCX  DEBUG ioctl(req=35142, ifr_name=lo) failed: Operation not supported
[1762981436.195018] [my275instance:19091:0]         tcp_net.c:61   UCX  DEBUG speed of lo is UNKNOWN, assuming 100 Mbps
[1762981436.195061] [my275instance:19091:0]            sock.c:90   UCX  DEBUG ioctl(req=35142, ifr_name=lo) failed: Operation not supported
[1762981436.195069] [my275instance:19091:0]         tcp_net.c:61   UCX  DEBUG speed of lo is UNKNOWN, assuming 100 Mbps
[1762981436.195124] [my275instance:19091:0]            sock.c:90   UCX  DEBUG ioctl(req=35142, ifr_name=lo) failed: Operation not supported
[1762981436.195132] [my275instance:19091:0]         tcp_net.c:61   UCX  DEBUG speed of lo is UNKNOWN, assuming 100 Mbps
[1762981436.195187] [my275instance:19091:0]            sock.c:90   UCX  DEBUG ioctl(req=35142, ifr_name=lo) failed: Operation not supported
[1762981436.195199] [my275instance:19091:0]         tcp_net.c:61   UCX  DEBUG speed of lo is UNKNOWN, assuming 100 Mbps
[1762981436.195257] [my275instance:19091:0]            sock.c:90   UCX  DEBUG ioctl(req=35142, ifr_name=lo) failed: Operation not supported
[1762981436.195267] [my275instance:19091:0]         tcp_net.c:61   UCX  DEBUG speed of lo is UNKNOWN, assuming 100 Mbps
[1762981436.195321] [my275instance:19091:0]            sock.c:90   UCX  DEBUG ioctl(req=35142, ifr_name=lo) failed: Operation not supported
[1762981436.195330] [my275instance:19091:0]         tcp_net.c:61   UCX  DEBUG speed of lo is UNKNOWN, assuming 100 Mbps
[1762981436.195392] [my275instance:19091:0]            sock.c:90   UCX  DEBUG ioctl(req=35142, ifr_name=lo) failed: Operation not supported
[1762981436.195406] [my275instance:19091:0]         tcp_net.c:61   UCX  DEBUG speed of lo is UNKNOWN, assuming 100 Mbps
[1762981436.195468] [my275instance:19091:0]            sock.c:90   UCX  DEBUG ioctl(req=35142, ifr_name=lo) failed: Operation not supported
[1762981436.195481] [my275instance:19091:0]         tcp_net.c:61   UCX  DEBUG speed of lo is UNKNOWN, assuming 100 Mbps
[1762981436.195543] [my275instance:19091:0]            sock.c:90   UCX  DEBUG ioctl(req=35142, ifr_name=lo) failed: Operation not supported
[1762981436.195552] [my275instance:19091:0]         tcp_net.c:61   UCX  DEBUG speed of lo is UNKNOWN, assuming 100 Mbps
[1762981436.195598] [my275instance:19091:0]            sock.c:90   UCX  DEBUG ioctl(req=35142, ifr_name=lo) failed: Operation not supported
[1762981436.195610] [my275instance:19091:0]         tcp_net.c:61   UCX  DEBUG speed of lo is UNKNOWN, assuming 100 Mbps
[1762981436.195676] [my275instance:19091:0]            sock.c:90   UCX  DEBUG ioctl(req=35142, ifr_name=lo) failed: Operation not supported
[1762981436.195689] [my275instance:19091:0]         tcp_net.c:61   UCX  DEBUG speed of lo is UNKNOWN, assuming 100 Mbps
[1762981436.195742] [my275instance:19091:0]            sock.c:90   UCX  DEBUG ioctl(req=35142, ifr_name=lo) failed: Operation not supported
[1762981436.195750] [my275instance:19091:0]         tcp_net.c:61   UCX  DEBUG speed of lo is UNKNOWN, assuming 100 Mbps
[1762981436.195804] [my275instance:19091:0]            sock.c:90   UCX  DEBUG ioctl(req=35142, ifr_name=lo) failed: Operation not supported
[1762981436.195812] [my275instance:19091:0]         tcp_net.c:61   UCX  DEBUG speed of lo is UNKNOWN, assuming 100 Mbps
[1762981436.195864] [my275instance:19091:0]         tcp_net.c:61   UCX  DEBUG speed of ens4 is UNKNOWN, assuming 100 Mbps
[1762981436.195913] [my275instance:19091:0]         tcp_net.c:61   UCX  DEBUG speed of ens4 is UNKNOWN, assuming 100 Mbps
[1762981436.195959] [my275instance:19091:0]         tcp_net.c:61   UCX  DEBUG speed of ens4 is UNKNOWN, assuming 100 Mbps
[1762981436.196005] [my275instance:19091:0]         tcp_net.c:61   UCX  DEBUG speed of ens4 is UNKNOWN, assuming 100 Mbps
[1762981436.196057] [my275instance:19091:0]         tcp_net.c:61   UCX  DEBUG speed of ens4 is UNKNOWN, assuming 100 Mbps
[1762981436.196119] [my275instance:19091:0]         tcp_net.c:61   UCX  DEBUG speed of ens4 is UNKNOWN, assuming 100 Mbps
[1762981436.196170] [my275instance:19091:0]         tcp_net.c:61   UCX  DEBUG speed of ens4 is UNKNOWN, assuming 100 Mbps
[1762981436.196218] [my275instance:19091:0]         tcp_net.c:61   UCX  DEBUG speed of ens4 is UNKNOWN, assuming 100 Mbps
[1762981436.196265] [my275instance:19091:0]         tcp_net.c:61   UCX  DEBUG speed of ens4 is UNKNOWN, assuming 100 Mbps
[1762981436.196310] [my275instance:19091:0]         tcp_net.c:61   UCX  DEBUG speed of ens4 is UNKNOWN, assuming 100 Mbps
[1762981436.196359] [my275instance:19091:0]         tcp_net.c:61   UCX  DEBUG speed of ens4 is UNKNOWN, assuming 100 Mbps
[1762981436.196406] [my275instance:19091:0]         tcp_net.c:61   UCX  DEBUG speed of ens4 is UNKNOWN, assuming 100 Mbps
[1762981436.196451] [my275instance:19091:0]         tcp_net.c:61   UCX  DEBUG speed of ens4 is UNKNOWN, assuming 100 Mbps
[1762981436.196497] [my275instance:19091:0]         tcp_net.c:61   UCX  DEBUG speed of ens4 is UNKNOWN, assuming 100 Mbps
[1762981436.196541] [my275instance:19091:0]         tcp_net.c:61   UCX  DEBUG speed of ens4 is UNKNOWN, assuming 100 Mbps
[1762981436.196586] [my275instance:19091:0]         tcp_net.c:61   UCX  DEBUG speed of ens4 is UNKNOWN, assuming 100 Mbps
[1762981436.196630] [my275instance:19091:0]         tcp_net.c:61   UCX  DEBUG speed of ens4 is UNKNOWN, assuming 100 Mbps
[1762981436.196674] [my275instance:19091:0]         tcp_net.c:61   UCX  DEBUG speed of ens4 is UNKNOWN, assuming 100 Mbps
[1762981436.196719] [my275instance:19091:0]         tcp_net.c:61   UCX  DEBUG speed of ens4 is UNKNOWN, assuming 100 Mbps
[1762981436.196769] [my275instance:19091:0]         tcp_net.c:61   UCX  DEBUG speed of ens4 is UNKNOWN, assuming 100 Mbps
[1762981436.196816] [my275instance:19091:0]         tcp_net.c:61   UCX  DEBUG speed of ens4 is UNKNOWN, assuming 100 Mbps
[1762981436.196881] [my275instance:19091:0]           mpool.c:154  UCX  DEBUG mpool ucp_reg_bufs destroyed
[1762981436.196889] [my275instance:19091:0]           mpool.c:154  UCX  DEBUG mpool ucp_am_bufs destroyed
[1762981436.196892] [my275instance:19091:0]           mpool.c:154  UCX  DEBUG mpool ucp_am_bufs destroyed
[1762981436.196897] [my275instance:19091:0]           mpool.c:154  UCX  DEBUG mpool ucp_am_bufs destroyed
[1762981436.196900] [my275instance:19091:0]           mpool.c:154  UCX  DEBUG mpool ucp_rkeys destroyed
[1762981436.196907] [my275instance:19091:0]           mpool.c:154  UCX  DEBUG mpool ucp_requests destroyed
[1762981436.196924] [my275instance:19091:0]           mpool.c:154  UCX  DEBUG mpool self_msg_desc destroyed
[1762981436.196945] [my275instance:19091:0]           async.c:155  UCX  DEBUG removed async handler 0x55eef845f760 [id=8 ref 1] ???() from hash
[1762981436.196949] [my275instance:19091:0]           async.c:561  UCX  DEBUG removing async handler 0x55eef845f760 [id=8 ref 1] ???()
[1762981436.196958] [my275instance:19091:0]           async.c:170  UCX  DEBUG release async handler 0x55eef845f760 [id=8 ref 0] ???()
[1762981436.196963] [my275instance:19091:0]       tcp_iface.c:774  UCX  DEBUG tcp_iface 0x55eef845f7a0: destroying
[1762981436.196980] [my275instance:19091:0]           async.c:155  UCX  DEBUG removed async handler 0x55eef839b870 [id=9 ref 1] ???() from hash
[1762981436.196984] [my275instance:19091:0]           async.c:561  UCX  DEBUG removing async handler 0x55eef839b870 [id=9 ref 1] ???()
[1762981436.196990] [my275instance:19091:0]           async.c:170  UCX  DEBUG release async handler 0x55eef839b870 [id=9 ref 0] ???()
[1762981436.196997] [my275instance:19091:0]           mpool.c:154  UCX  DEBUG mpool uct_tcp_iface_rx_buf_mp destroyed
[1762981436.197001] [my275instance:19091:0]           mpool.c:154  UCX  DEBUG mpool uct_tcp_iface_tx_buf_mp destroyed
[1762981436.197018] [my275instance:19091:0]           async.c:155  UCX  DEBUG removed async handler 0x55eef83a1f30 [id=10 ref 1] ???() from hash
[1762981436.197022] [my275instance:19091:0]           async.c:561  UCX  DEBUG removing async handler 0x55eef83a1f30 [id=10 ref 1] ???()
[1762981436.197027] [my275instance:19091:0]           async.c:170  UCX  DEBUG release async handler 0x55eef83a1f30 [id=10 ref 0] ???()
[1762981436.197031] [my275instance:19091:0]       tcp_iface.c:774  UCX  DEBUG tcp_iface 0x55eef8424a90: destroying
[1762981436.197035] [my275instance:19091:0]           async.c:155  UCX  DEBUG removed async handler 0x55eef83a1bb0 [id=11 ref 1] ???() from hash
[1762981436.197039] [my275instance:19091:0]           async.c:561  UCX  DEBUG removing async handler 0x55eef83a1bb0 [id=11 ref 1] ???()
[1762981436.197043] [my275instance:19091:0]           async.c:170  UCX  DEBUG release async handler 0x55eef83a1bb0 [id=11 ref 0] ???()
[1762981436.197047] [my275instance:19091:0]           mpool.c:154  UCX  DEBUG mpool uct_tcp_iface_rx_buf_mp destroyed
[1762981436.197051] [my275instance:19091:0]           mpool.c:154  UCX  DEBUG mpool uct_tcp_iface_tx_buf_mp destroyed
[1762981436.197062] [my275instance:19091:0]           async.c:155  UCX  DEBUG removed async handler 0x55eef8415980 [id=12 ref 1] ???() from hash
[1762981436.197065] [my275instance:19091:0]           async.c:561  UCX  DEBUG removing async handler 0x55eef8415980 [id=12 ref 1] ???()
[1762981436.197070] [my275instance:19091:0]           async.c:170  UCX  DEBUG release async handler 0x55eef8415980 [id=12 ref 0] ???()
[1762981436.197918] [my275instance:19091:0]           mpool.c:154  UCX  DEBUG mpool mm_recv_desc destroyed
[1762981436.197953] [my275instance:19091:0]           async.c:155  UCX  DEBUG removed async handler 0x55eef84206c0 [id=14 ref 1] ???() from hash
[1762981436.197958] [my275instance:19091:0]           async.c:561  UCX  DEBUG removing async handler 0x55eef84206c0 [id=14 ref 1] ???()
[1762981436.197964] [my275instance:19091:0]           async.c:170  UCX  DEBUG release async handler 0x55eef84206c0 [id=14 ref 0] ???()
[1762981436.199393] [my275instance:19091:0]           mpool.c:154  UCX  DEBUG mpool mm_recv_desc destroyed
[1762981436.199437] [my275instance:19091:0]           mpool.c:154  UCX  DEBUG mpool uct_scopy_iface_tx_mp destroyed
[1762981436.199558] [my275instance:19091:0]           async.c:155  UCX  DEBUG removed async handler 0x55eef83a2e10 [id=3 ref 1] ???() from hash
[1762981436.199567] [my275instance:19091:0]           async.c:561  UCX  DEBUG removing async handler 0x55eef83a2e10 [id=3 ref 1] ???()
[1762981436.199873] [my275instance:19091:0]           async.c:170  UCX  DEBUG release async handler 0x55eef83a2e10 [id=3 ref 0] ???()
[1762981436.199887] [my275instance:19091:0]         pgtable.c:618  UCX  DEBUG purge empty page table
[1762981436.199891] [my275instance:19091:0]           mpool.c:154  UCX  DEBUG mpool rcache_mp destroyed
