
     Program PWSCF v.7.4.1 starts on 12Nov2025 at 21: 6:58 

     This program is part of the open-source Quantum ESPRESSO suite
     for quantum simulation of materials; please cite
         "P. Giannozzi et al., J. Phys.:Condens. Matter 21 395502 (2009);
         "P. Giannozzi et al., J. Phys.:Condens. Matter 29 465901 (2017);
         "P. Giannozzi et al., J. Chem. Phys. 152 154105 (2020);
          URL http://www.quantum-espresso.org", 
     in publications or presentations arising from this work. More details at
     http://www.quantum-espresso.org/quote

     Parallel version (MPI), running on     1 processors

     MPI processes distributed on     1 nodes
     4796 MiB available memory on the printing compute node when the environment starts

     Reading input from quartz/finite_strain/eps_m005_xx.in

     Current dimensions of program PWSCF are:
     Max number of different atomic species (ntypx) = 10
     Max number of k-points (npk) =  40000
     Max angular momentum in pseudopotentials (lmaxx) =  4

     IMPORTANT: XC functional enforced from input :
     Exchange-correlation= LDA
                           (   1   1   0   0   0   0   0)
     Any further DFT definition will be discarded
     Please, verify this is what you really want


     Subspace diagonalization in iterative solution of the eigenvalue problem:
     a serial algorithm will be used


     G-vector sticks info
     --------------------
     sticks:   dense  smooth     PW     G-vecs:    dense   smooth      PW
     Sum        2757    1371    413               133975    47325    7793

     Using Slab Decomposition



     bravais-lattice index     =            0
     lattice parameter (alat)  =       9.2524  a.u.
     unit-cell volume          =     754.4360 (a.u.)^3
     number of atoms/cell      =            9
     number of atomic types    =            2
     number of electrons       =        48.00
     number of Kohn-Sham states=           24
     kinetic-energy cutoff     =      60.0000  Ry
     charge density cutoff     =     480.0000  Ry
     scf convergence threshold =      1.0E-08
     mixing beta               =       0.3000
     number of iterations used =            8  plain     mixing
     Exchange-correlation= LDA
                           (   1   1   0   0   0   0   0)

     celldm(1)=   9.252416  celldm(2)=   0.000000  celldm(3)=   0.000000
     celldm(4)=   0.000000  celldm(5)=   0.000000  celldm(6)=   0.000000

     crystal axes: (cart. coord. in units of alat)
               a(1) = (   0.999751  -0.015585  -0.015945 )  
               a(2) = (  -0.522364   0.848582   0.050013 )  
               a(3) = (  -0.010217   0.059778   1.136718 )  

     reciprocal axes: (cart. coord. in units 2 pi/alat)
               b(1) = (  1.009581  0.622866 -0.023682 )  
               b(2) = (  0.017599  1.192959 -0.062578 )  
               b(3) = (  0.013387 -0.043750  0.882147 )  


     PseudoPot. # 1 for Si read from file:
     ./pseudos/Si.pz-vbc.UPF
     MD5 check sum: 9f25e6ff280f3123e9b3a84715b2e9c9
     Pseudo is Norm-conserving, Zval =  4.0
     Generated by new atomic code, or converted to UPF format
     Using radial grid of  431 points,  2 beta functions with: 
                l(1) =   0
                l(2) =   1

     PseudoPot. # 2 for O  read from file:
     ./pseudos/O.pz-van_ak.UPF
     MD5 check sum: b77f3d8cfe972ebbeca95ec6abb46c7c
     Pseudo is Ultrasoft, Zval =  6.0
     Generated by new atomic code, or converted to UPF format
     Using radial grid of  737 points,  4 beta functions with: 
                l(1) =   0
                l(2) =   0
                l(3) =   1
                l(4) =   1
     Q(r) pseudized with  8 coefficients,  rinner =    0.800   0.800   0.800


     atomic species   valence    mass     pseudopotential
     Si                4.00    28.08550     Si( 1.00)
     O                 6.00    15.99940     O ( 1.00)

     No symmetry found



   Cartesian axes

     site n.     atom                  positions (alat units)
         1        Si     tau(   1) = (   0.4588099  -0.0023291  -0.0044831  )
         2        Si     tau(   2) = (  -0.2577333   0.4782238   0.7627619  )
         3        Si     tau(   3) = (   0.2297407   0.4020678   0.3953588  )
         4        O      tau(   4) = (   0.2427038   0.1058366   0.2313619  )
         5        O      tau(   5) = (   0.5398503   0.4235817   0.4938663  )
         6        O      tau(   6) = (   0.5782572   0.3517845   1.0433210  )
         7        O      tau(   7) = (   0.1688643   0.6802870   0.2199361  )
         8        O      tau(   8) = (   0.0424656   0.3624427   0.6636016  )
         9        O      tau(   9) = (  -0.1342734   0.7692049   0.8774184  )

     number of k points=   112

     Number of k-points >= 100: set verbosity='high' to print them.

     Dense  grid:   133975 G-vectors     FFT dimensions: (  72,  72,  75)

     Smooth grid:    47325 G-vectors     FFT dimensions: (  45,  45,  54)

     Estimated max dynamical RAM per process >     437.45 MB

     Initial potential from superposition of free atoms

     starting charge      47.9985, renormalised to      48.0000
     Starting wfcs are   36 randomized atomic wfcs

     total cpu time spent up to now is       10.1 secs

     Self-consistent Calculation

     iteration #  1     ecut=    60.00 Ry     beta= 0.30
     Davidson diagonalization with overlap
     ethr =  1.00E-02,  avg # of iterations =  2.0

     total cpu time spent up to now is       30.1 secs

     total energy              =    -216.60343734 Ry
     estimated scf accuracy    <       2.35356206 Ry

     iteration #  2     ecut=    60.00 Ry     beta= 0.30
     Davidson diagonalization with overlap
     ethr =  4.90E-03,  avg # of iterations =  2.0

     total cpu time spent up to now is       48.5 secs

     total energy              =    -216.82419770 Ry
     estimated scf accuracy    <       0.26403942 Ry

     iteration #  3     ecut=    60.00 Ry     beta= 0.30
     Davidson diagonalization with overlap
     ethr =  5.50E-04,  avg # of iterations =  3.0

     total cpu time spent up to now is       73.2 secs

     total energy              =    -216.90925985 Ry
     estimated scf accuracy    <       0.09510425 Ry

     iteration #  4     ecut=    60.00 Ry     beta= 0.30
     Davidson diagonalization with overlap
     ethr =  1.98E-04,  avg # of iterations =  3.0

     total cpu time spent up to now is       97.8 secs

     total energy              =    -216.90951963 Ry
     estimated scf accuracy    <       0.17081291 Ry

     iteration #  5     ecut=    60.00 Ry     beta= 0.30
     Davidson diagonalization with overlap
     ethr =  1.98E-04,  avg # of iterations =  2.0

     total cpu time spent up to now is      118.1 secs

     total energy              =    -216.93748777 Ry
     estimated scf accuracy    <       0.00275953 Ry

     iteration #  6     ecut=    60.00 Ry     beta= 0.30
     Davidson diagonalization with overlap
     ethr =  5.75E-06,  avg # of iterations =  4.8

     total cpu time spent up to now is      148.0 secs

     total energy              =    -216.94118856 Ry
     estimated scf accuracy    <       0.00215583 Ry

     iteration #  7     ecut=    60.00 Ry     beta= 0.30
     Davidson diagonalization with overlap
     ethr =  4.49E-06,  avg # of iterations =  1.1

     total cpu time spent up to now is      162.2 secs

     total energy              =    -216.94108071 Ry
     estimated scf accuracy    <       0.00075235 Ry

     iteration #  8     ecut=    60.00 Ry     beta= 0.30
     Davidson diagonalization with overlap
     ethr =  1.57E-06,  avg # of iterations =  1.6

     total cpu time spent up to now is      177.2 secs

     total energy              =    -216.94100760 Ry
     estimated scf accuracy    <       0.00023986 Ry

     iteration #  9     ecut=    60.00 Ry     beta= 0.30
     Davidson diagonalization with overlap
     ethr =  5.00E-07,  avg # of iterations =  2.1

     total cpu time spent up to now is      197.0 secs

     total energy              =    -216.94108748 Ry
     estimated scf accuracy    <       0.00000429 Ry

     iteration # 10     ecut=    60.00 Ry     beta= 0.30
     Davidson diagonalization with overlap
     ethr =  8.94E-09,  avg # of iterations =  5.3

     total cpu time spent up to now is      227.1 secs

     total energy              =    -216.94109252 Ry
     estimated scf accuracy    <       0.00003324 Ry

     iteration # 11     ecut=    60.00 Ry     beta= 0.30
     Davidson diagonalization with overlap
     ethr =  8.94E-09,  avg # of iterations =  1.0

     total cpu time spent up to now is      241.3 secs

     total energy              =    -216.94107861 Ry
     estimated scf accuracy    <       0.00002799 Ry

     iteration # 12     ecut=    60.00 Ry     beta= 0.30
     Davidson diagonalization with overlap
     ethr =  8.94E-09,  avg # of iterations =  4.0

     total cpu time spent up to now is      270.1 secs

     total energy              =    -216.94108466 Ry
     estimated scf accuracy    <       0.00000005 Ry

     iteration # 13     ecut=    60.00 Ry     beta= 0.30
     Davidson diagonalization with overlap
     ethr =  9.51E-11,  avg # of iterations =  7.0

     total cpu time spent up to now is      306.7 secs

     total energy              =    -216.94108468 Ry
     estimated scf accuracy    <       0.00000019 Ry

     iteration # 14     ecut=    60.00 Ry     beta= 0.30
     Davidson diagonalization with overlap
     ethr =  9.51E-11,  avg # of iterations =  2.0

     total cpu time spent up to now is      326.1 secs

     total energy              =    -216.94108467 Ry
     estimated scf accuracy    <       0.00000008 Ry

     iteration # 15     ecut=    60.00 Ry     beta= 0.30
     Davidson diagonalization with overlap
     ethr =  9.51E-11,  avg # of iterations =  2.0

     total cpu time spent up to now is      344.3 secs

     total energy              =    -216.94108466 Ry
     estimated scf accuracy    <       0.00000003 Ry

     iteration # 16     ecut=    60.00 Ry     beta= 0.30
     Davidson diagonalization with overlap
     ethr =  5.35E-11,  avg # of iterations =  3.0

     total cpu time spent up to now is      370.2 secs

     End of self-consistent calculation

     Number of k-points >= 100: set verbosity='high' to print the bands.

     highest occupied level (ev):     2.6906

!    total energy              =    -216.94108468 Ry
     estimated scf accuracy    <          6.9E-09 Ry

     The total energy is the sum of the following terms:
     one-electron contribution =    -102.15526828 Ry
     hartree contribution      =      76.24891290 Ry
     xc contribution           =     -49.53789704 Ry
     ewald contribution        =    -141.49683226 Ry

     convergence has been achieved in  16 iterations

     Writing all to output data dir ./tmp/quartz.save/ :
     XML data file, charge density, pseudopotentials, collected wavefunctions

     init_run     :      9.91s CPU     10.07s WALL (       1 calls)
     electrons    :    358.56s CPU    360.07s WALL (       1 calls)

     Called by init_run:
     wfcinit      :      9.00s CPU      9.13s WALL (       1 calls)
     potinit      :      0.22s CPU      0.23s WALL (       1 calls)
     hinit0       :      0.54s CPU      0.54s WALL (       1 calls)

     Called by electrons:
     c_bands      :    317.74s CPU    318.80s WALL (      16 calls)
     sum_band     :     39.18s CPU     39.50s WALL (      16 calls)
     v_of_rho     :      0.32s CPU      0.34s WALL (      17 calls)
     newd         :      1.07s CPU      1.19s WALL (      17 calls)
     mix_rho      :      0.19s CPU      0.20s WALL (      16 calls)

     Called by c_bands:
     init_us_2    :      6.18s CPU      6.23s WALL (    3696 calls)
     cegterg      :    306.83s CPU    307.83s WALL (    1792 calls)

     Called by *egterg:
     cdiaghg      :      3.81s CPU      3.83s WALL (    6932 calls)
     h_psi        :    254.43s CPU    255.41s WALL (    7044 calls)
     s_psi        :     10.58s CPU     10.61s WALL (    7044 calls)
     g_psi        :      2.25s CPU      2.25s WALL (    5140 calls)

     Called by h_psi:
     h_psi:calbec :     12.90s CPU     12.95s WALL (    7044 calls)
     vloc_psi     :    229.36s CPU    230.23s WALL (    7044 calls)
     add_vuspsi   :     10.91s CPU     10.95s WALL (    7044 calls)

     General routines
     calbec       :     16.40s CPU     16.48s WALL (    8836 calls)
     fft          :      0.70s CPU      0.70s WALL (      99 calls)
     ffts         :      0.20s CPU      0.20s WALL (      33 calls)
     fftw         :    206.51s CPU    207.30s WALL (  336584 calls)
     interpolate  :      0.25s CPU      0.25s WALL (      17 calls)

     Parallel routines

     PWSCF        :   6m 8.59s CPU   6m10.61s WALL


   This run was terminated on:  21:13: 8  12Nov2025            

=------------------------------------------------------------------------------=
   JOB DONE.
=------------------------------------------------------------------------------=
